     Program PWSCF v.6.6 starts on 15Jun2021 at  0:40:40

     R & G space division:  proc/nbgrp/npool/nimage =       2
     Fft bands division:     nmany     =       1
     Waiting for input...
     Reading input from standard input

     Current dimensions of program PWSCF are:
     Max number of different atomic species (ntypx) = 10
     Max number of k-points (npk) =  40000
     Max angular momentum in pseudopotentials (lmaxx) =  3
     file Nb.pz-spn-kjpaw_psl.1.0.0.UPF: wavefunction(s)  4S 4P 4D renormalized
     file S.pz-n-kjpaw_psl.0.1.UPF: wavefunction(s)  3P renormalized

     Subspace diagonalization in iterative solution of the eigenvalue problem:
     a serial algorithm will be used

     bravais-lattice index     =            4
     lattice parameter (alat)  =       6.2187  a.u.
     unit-cell volume          =    1265.7886 (a.u.)^3
     number of atoms/cell      =            6
     number of atomic types    =            2
     number of electrons       =        50.00
     number of Kohn-Sham states=           60
     kinetic-energy cutoff     =      40.0000  Ry
     charge density cutoff     =     400.0000  Ry
     convergence threshold     =      1.0E-08
     mixing beta               =       0.7000
     number of iterations used =            8  plain     mixing
     Exchange-correlation= SLA PZ NOGX NOGC
                           (   1   1   0   0   0   0   0)
     nstep                     =           50

     celldm(1)=   6.218718  celldm(2)=   0.000000  celldm(3)=   6.077543
     celldm(4)=   0.000000  celldm(5)=   0.000000  celldm(6)=   0.000000

     crystal axes: (cart. coord. in units of alat)
               a(1) = (   1.000000   0.000000   0.000000 )
               a(2) = (  -0.500000   0.866025   0.000000 )
               a(3) = (   0.000000   0.000000   6.077543 )

     reciprocal axes: (cart. coord. in units 2 pi/alat)
               b(1) = (  1.000000  0.577350 -0.000000 )
               b(2) = (  0.000000  1.154701  0.000000 )
               b(3) = (  0.000000 -0.000000  0.164540 )

     PseudoPot. # 1 for Nb read from file:
     ../Nb.pz-spn-kjpaw_psl.1.0.0.UPF
     MD5 check sum: 38c2e04b3cc915696ca8dc9f46a23270
     Pseudo is Projector augmented-wave + core cor, Zval = 13.0
     Generated using "atomic" code by A. Dal Corso v.6.2.2
     Shape of augmentation charge: PSQ
     Using radial grid of 1227 points,  6 beta functions with:
                l(1) =   0
                l(2) =   0
                l(3) =   1
                l(4) =   1
                l(5) =   2
                l(6) =   2
     Q(r) pseudized with 0 coefficients

     PseudoPot. # 2 for S  read from file:
     ../S.pz-n-kjpaw_psl.0.1.UPF
     MD5 check sum: c0b1682311cf098e03f7841691d9a679
     Pseudo is Projector augmented-wave + core cor, Zval =  6.0
     Generated using "atomic" code by A. Dal Corso v.5.0.2 svn rev. 9415
     Shape of augmentation charge: PSQ
     Using radial grid of 1151 points,  4 beta functions with:
                l(1) =   0
                l(2) =   0
                l(3) =   1
                l(4) =   1
     Q(r) pseudized with 0 coefficients

     atomic species   valence    mass     pseudopotential
        Nb            13.00    92.90600     Nb( 1.00)
        S              6.00    32.06500     S ( 1.00)

     No symmetry found

                                    s                        frac. trans.

      isym =  1     identity

 cryst.   s( 1) = (     1          0          0      )
                  (     0          1          0      )
                  (     0          0          1      )

 cart.    s( 1) = (  1.0000000  0.0000000  0.0000000 )
                  (  0.0000000  1.0000000  0.0000000 )
                  (  0.0000000  0.0000000  1.0000000 )

     point group C_1 (1)
     there are  1 classes
     the character table:

       E
A      1.00

     the symmetry operations in each class and the name of the first element:

     E        1
          identity

   Cartesian axes

     site n.     atom                  positions (alat units)
         1           S   tau(   1) = (  -0.0000000   0.5756654   1.3609422  )
         2           Nb  tau(   2) = (   0.0000000   0.0000000   0.8922428  )
         3           S   tau(   3) = (  -0.0009728   0.5773503   0.4235480  )
         4           S   tau(   4) = (   0.4985408   0.2878327   2.1408321  )
         5           Nb  tau(   5) = (   0.0000000   0.0000000   2.6095260  )
         6           S   tau(   6) = (   0.4985408   0.2878327   3.0782101  )

   Crystallographic axes

     site n.     atom                  positions (cryst. coord.)
         1           S   tau(   1) = (  0.3323606  0.6647211  0.2239297  )
         2           Nb  tau(   2) = (  0.0000000  0.0000000  0.1468098  )
         3           S   tau(   3) = (  0.3323606  0.6666667  0.0696907  )
         4           S   tau(   4) = (  0.6647211  0.3323606  0.3522529  )
         5           Nb  tau(   5) = (  0.0000000  0.0000000  0.4293719  )
         6           S   tau(   6) = (  0.6647211  0.3323606  0.5064893  )

     number of k points=    74  Methfessel-Paxton smearing, width (Ry)=  0.0200
                       cart. coord. in units 2pi/alat
        k(    1) = (   0.0000000   0.0000000   0.0000000), wk =   0.0138889
        k(    2) = (   0.0000000   0.0962250   0.0000000), wk =   0.0277778
        k(    3) = (   0.0000000   0.1924501   0.0000000), wk =   0.0277778
        k(    4) = (   0.0000000   0.2886751   0.0000000), wk =   0.0277778
        k(    5) = (   0.0000000   0.3849002   0.0000000), wk =   0.0277778
        k(    6) = (   0.0000000   0.4811252   0.0000000), wk =   0.0277778
        k(    7) = (   0.0000000  -0.5773503   0.0000000), wk =   0.0138889
        k(    8) = (   0.0833333   0.1443376   0.0000000), wk =   0.0277778
        k(    9) = (   0.0833333   0.2405626   0.0000000), wk =   0.0277778
        k(   10) = (   0.0833333   0.3367877   0.0000000), wk =   0.0277778
        k(   11) = (   0.0833333   0.4330127   0.0000000), wk =   0.0277778
        k(   12) = (   0.0833333   0.5292377   0.0000000), wk =   0.0277778
        k(   13) = (   0.1666667   0.2886751   0.0000000), wk =   0.0277778
        k(   14) = (   0.1666667   0.3849002   0.0000000), wk =   0.0277778
        k(   15) = (   0.1666667   0.4811252   0.0000000), wk =   0.0277778
        k(   16) = (   0.1666667   0.5773503   0.0000000), wk =   0.0277778
        k(   17) = (   0.2500000   0.4330127   0.0000000), wk =   0.0277778
        k(   18) = (   0.2500000   0.5292377   0.0000000), wk =   0.0277778
        k(   19) = (   0.3333333   0.5773503   0.0000000), wk =   0.0277778
        k(   20) = (  -0.0833333   0.0481125   0.0000000), wk =   0.0277778
        k(   21) = (   0.0833333   0.0481125   0.0000000), wk =   0.0277778
        k(   22) = (  -0.1666667   0.0962250   0.0000000), wk =   0.0277778
        k(   23) = (   0.1666667   0.0962250   0.0000000), wk =   0.0277778
        k(   24) = (  -0.2500000   0.1443376   0.0000000), wk =   0.0277778
        k(   25) = (   0.2500000   0.1443376   0.0000000), wk =   0.0277778
        k(   26) = (  -0.3333333   0.1924501   0.0000000), wk =   0.0277778
        k(   27) = (   0.3333333   0.1924501   0.0000000), wk =   0.0277778
        k(   28) = (  -0.4166667   0.2405626   0.0000000), wk =   0.0277778
        k(   29) = (   0.4166667   0.2405626   0.0000000), wk =   0.0277778
        k(   30) = (   0.5000000  -0.2886751   0.0000000), wk =   0.0138889
        k(   31) = (  -0.5000000  -0.2886751   0.0000000), wk =   0.0138889
        k(   32) = (  -0.0833333   0.1443376   0.0000000), wk =   0.0277778
        k(   33) = (   0.1666667   0.0000000   0.0000000), wk =   0.0277778
        k(   34) = (  -0.0833333   0.2405626   0.0000000), wk =   0.0277778
        k(   35) = (  -0.1666667   0.1924501   0.0000000), wk =   0.0277778
        k(   36) = (   0.2500000   0.0481125   0.0000000), wk =   0.0277778
        k(   37) = (  -0.1666667  -0.1924501   0.0000000), wk =   0.0277778
        k(   38) = (   0.2500000  -0.0481125   0.0000000), wk =   0.0277778
        k(   39) = (  -0.0833333   0.3367877   0.0000000), wk =   0.0277778
        k(   40) = (  -0.2500000   0.2405626   0.0000000), wk =   0.0277778
        k(   41) = (   0.3333333   0.0962250   0.0000000), wk =   0.0277778
        k(   42) = (  -0.2500000  -0.2405626   0.0000000), wk =   0.0277778
        k(   43) = (   0.3333333  -0.0962250   0.0000000), wk =   0.0277778
        k(   44) = (  -0.0833333   0.4330127   0.0000000), wk =   0.0277778
        k(   45) = (  -0.3333333   0.2886751   0.0000000), wk =   0.0277778
        k(   46) = (   0.4166667   0.1443376   0.0000000), wk =   0.0277778
        k(   47) = (  -0.3333333  -0.2886751   0.0000000), wk =   0.0277778
        k(   48) = (   0.4166667  -0.1443376   0.0000000), wk =   0.0277778
        k(   49) = (  -0.0833333   0.5292377   0.0000000), wk =   0.0277778
        k(   50) = (  -0.4166667   0.3367877   0.0000000), wk =   0.0277778
        k(   51) = (   0.5000000   0.1924501   0.0000000), wk =   0.0277778
        k(   52) = (  -0.4166667  -0.3367877   0.0000000), wk =   0.0277778
        k(   53) = (   0.5000000  -0.1924501   0.0000000), wk =   0.0277778
        k(   54) = (  -0.1666667   0.2886751   0.0000000), wk =   0.0277778
        k(   55) = (   0.3333333   0.0000000   0.0000000), wk =   0.0277778
        k(   56) = (  -0.1666667   0.3849002   0.0000000), wk =   0.0277778
        k(   57) = (  -0.2500000   0.3367877   0.0000000), wk =   0.0277778
        k(   58) = (   0.4166667   0.0481125   0.0000000), wk =   0.0277778
        k(   59) = (  -0.2500000  -0.3367877   0.0000000), wk =   0.0277778
        k(   60) = (   0.4166667  -0.0481125   0.0000000), wk =   0.0277778
        k(   61) = (  -0.1666667   0.4811252   0.0000000), wk =   0.0277778
        k(   62) = (  -0.3333333   0.3849002   0.0000000), wk =   0.0277778
        k(   63) = (   0.5000000   0.0962250   0.0000000), wk =   0.0277778
        k(   64) = (  -0.3333333  -0.3849002   0.0000000), wk =   0.0277778
        k(   65) = (   0.5000000  -0.0962250   0.0000000), wk =   0.0277778
        k(   66) = (  -0.4166667   0.4330127   0.0000000), wk =   0.0277778
        k(   67) = (   0.5833333   0.1443376   0.0000000), wk =   0.0277778
        k(   68) = (  -0.2500000   0.4330127   0.0000000), wk =   0.0277778
        k(   69) = (   0.5000000   0.0000000   0.0000000), wk =   0.0277778
        k(   70) = (  -0.2500000   0.5292377   0.0000000), wk =   0.0277778
        k(   71) = (  -0.3333333   0.4811252   0.0000000), wk =   0.0277778
        k(   72) = (   0.5833333   0.0481125   0.0000000), wk =   0.0277778
        k(   73) = (  -0.3333333  -0.4811252   0.0000000), wk =   0.0277778
        k(   74) = (   0.5833333  -0.0481125   0.0000000), wk =   0.0277778

                       cryst. coord.
        k(    1) = (   0.0000000   0.0000000   0.0000000), wk =   0.0138889
        k(    2) = (   0.0000000   0.0833333   0.0000000), wk =   0.0277778
        k(    3) = (   0.0000000   0.1666667   0.0000000), wk =   0.0277778
        k(    4) = (   0.0000000   0.2500000   0.0000000), wk =   0.0277778
[...]
        k(   65) = (   0.5000000  -0.3333333   0.0000000), wk =   0.0277778
        k(   66) = (  -0.4166667   0.5833333   0.0000000), wk =   0.0277778
        k(   67) = (   0.5833333  -0.1666667   0.0000000), wk =   0.0277778
        k(   68) = (  -0.2500000   0.5000000   0.0000000), wk =   0.0277778
        k(   69) = (   0.5000000  -0.2500000   0.0000000), wk =   0.0277778
        k(   70) = (  -0.2500000   0.5833333   0.0000000), wk =   0.0277778
        k(   71) = (  -0.3333333   0.5833333   0.0000000), wk =   0.0277778
        k(   72) = (   0.5833333  -0.2500000   0.0000000), wk =   0.0277778
        k(   73) = (  -0.3333333  -0.2500000   0.0000000), wk =   0.0277778
        k(   74) = (   0.5833333  -0.3333333   0.0000000), wk =   0.0277778

     Initial potential from superposition of free atoms

     starting charge   49.99775, renormalised to   50.00000

     negative rho (up, down):  1.224E-04 0.000E+00
     Starting wfcs are   42 randomized atomic wfcs +   18 random wfcs
     Checking if some PAW data can be deallocated...

     Self-consistent Calculation

     iteration #  1     ecut=    40.00 Ry     beta= 0.70
     Davidson diagonalization with overlap
     ethr =  1.00E-02,  avg # of iterations =  7.6

     Threshold (ethr) on eigenvalues was too large:
     Diagonalizing with lowered threshold

     Davidson diagonalization with overlap
     ethr =  5.16E-04,  avg # of iterations =  2.4

     negative rho (up, down):  1.790E-04 0.000E+00

     total energy              =    -907.82479889 Ry
     estimated scf accuracy    <       0.25909004 Ry

[...]

     End of self-consistent calculation

          k = 0.0000 0.0000 0.0000 (  5453 PWs)   bands (ev):

   -51.4992 -51.4992 -27.7275 -27.7270 -27.5032 -27.5022 -27.4998 -27.4989
   -10.7674 -10.3641  -9.3402  -8.8732  -2.6464  -1.6737   0.7062   0.7099
     0.7566   0.7597   1.1132   1.8294   1.8405   1.8769   1.8890   2.5883
     3.8754   4.7300   6.0201   6.0366   6.3185   6.3322   6.4618   6.4673
     6.5272   6.5338   8.4961   8.5907   8.9790   9.4314  10.9778  11.2006
    11.7223  13.1835  13.5593  13.5617  13.6195  13.6279  14.4511  15.3667
    15.4097  15.4226  16.2388  16.2916  16.2999  16.7116  17.9823  18.0000
    18.1425  18.2057  18.9356  19.0296

     occupation numbers
     1.0000   1.0000   1.0000   1.0000   1.0000   1.0000   1.0000   1.0000
     1.0000   1.0000   1.0000   1.0000   1.0000   1.0000   1.0000   1.0000
     1.0000   1.0000   1.0000   1.0000   1.0000   1.0000   1.0000   1.0071
    -0.0005  -0.0000  -0.0000  -0.0000  -0.0000  -0.0000  -0.0000  -0.0000
    -0.0000  -0.0000  -0.0000  -0.0000  -0.0000  -0.0000  -0.0000  -0.0000
    -0.0000  -0.0000  -0.0000  -0.0000  -0.0000  -0.0000  -0.0000  -0.0000
    -0.0000  -0.0000  -0.0000  -0.0000  -0.0000  -0.0000  -0.0000  -0.0000
    -0.0000  -0.0000  -0.0000  -0.0000

[...]

          k =-0.0833 0.0481 0.0000 (  5423 PWs)   bands (ev):

[...]

     the Fermi energy is     3.1422 ev

!    total energy              =    -907.91959350 Ry

     total all-electron energy =    -18448.328616 Ry
     estimated scf accuracy    <          1.1E-09 Ry
     smearing contrib. (-TS)   =      -0.00139427 Ry
     internal energy E=F+TS    =    -907.91819922 Ry

     The total energy is F=E-TS. E is the sum of the following terms:
     one-electron contribution =   -1383.78956850 Ry
     hartree contribution      =     705.24016814 Ry
     xc contribution           =     -65.43920216 Ry
     ewald contribution        =     424.33068046 Ry
     one-center paw contrib.   =    -588.26027716 Ry
      -> PAW hartree energy AE =     101.27283435 Ry
      -> PAW hartree energy PS =    -100.75836027 Ry
      -> PAW xc energy AE      =    -324.85546588 Ry
      -> PAW xc energy PS      =      30.21085677 Ry
      -> total E_H with PAW    =     705.75464223 Ry
      -> total E_XC with PAW   =    -360.08381127 Ry

     convergence has been achieved in  13 iterations

[...]

     Forces acting on atoms (cartesian axes, Ry/au):

     atom    1 type  2   force =     0.00009642    0.00133749   -0.00101345
     atom    2 type  1   force =    -0.00093471   -0.00143024    0.00821037
     atom    3 type  2   force =     0.00079842    0.00012193   -0.00893208
     atom    4 type  2   force =     0.00124432    0.00075404    0.00100657
     atom    5 type  1   force =    -0.00250997   -0.00152423   -0.00822638
     atom    6 type  2   force =     0.00130551    0.00074100    0.00895497
     The non-local contrib.  to forces
     atom    1 type  2   force =     0.00006178    0.00308966   -0.03421746
     atom    2 type  1   force =     0.00012694    0.00031216   -0.00964315
     atom    3 type  2   force =     0.00178894    0.00018216    0.09408804
     atom    4 type  2   force =     0.00281616    0.00154804    0.03420419
     atom    5 type  1   force =     0.00043794    0.00023022    0.00965221
     atom    6 type  2   force =     0.00281862    0.00165260   -0.09402203
     The ionic contribution  to forces
     atom    1 type  2   force =    -0.00039462    0.01417687   -1.37976670
     atom    2 type  1   force =    -0.00823821   -0.01426230  -53.02200491
     atom    3 type  2   force =     0.00786104    0.00053034  -47.42370049
     atom    4 type  2   force =     0.01312018    0.00674789    1.37959484
     atom    5 type  1   force =    -0.02469927   -0.01432262   53.02194290
     atom    6 type  2   force =     0.01235088    0.00712982   47.42393436
     The local contribution  to forces
     atom    1 type  2   force =     0.00043217   -0.01575014    1.41868378
     atom    2 type  1   force =     0.00720286    0.01256519   53.03884034
     atom    3 type  2   force =    -0.00874822   -0.00058124   47.31774360
     atom    4 type  2   force =    -0.01452958   -0.00745258   -1.41841079
     atom    5 type  1   force =     0.02182739    0.01261251  -53.03869527
     atom    6 type  2   force =    -0.01370187   -0.00794641  -47.31804752
     The core correction contribution to forces
     atom    1 type  2   force =    -0.00000280   -0.00017892   -0.00565589
     atom    2 type  1   force =    -0.00002610   -0.00004490    0.00102857
     atom    3 type  2   force =    -0.00010331   -0.00000916    0.00293269
     atom    4 type  2   force =    -0.00016240   -0.00008927    0.00565738
     atom    5 type  1   force =    -0.00007549   -0.00004392   -0.00102854
     atom    6 type  2   force =    -0.00016205   -0.00009494   -0.00293589
     The Hubbard contrib.    to forces
     atom    1 type  2   force =     0.00000000    0.00000000    0.00000000
     atom    2 type  1   force =     0.00000000    0.00000000    0.00000000
     atom    3 type  2   force =     0.00000000    0.00000000    0.00000000
     atom    4 type  2   force =     0.00000000    0.00000000    0.00000000
     atom    5 type  1   force =     0.00000000    0.00000000    0.00000000
     atom    6 type  2   force =     0.00000000    0.00000000    0.00000000
     The SCF correction term to forces
     atom    1 type  2   force =     0.00000002    0.00000011   -0.00005414
     atom    2 type  1   force =    -0.00000006   -0.00000029   -0.00000743
     atom    3 type  2   force =     0.00000010   -0.00000008    0.00000713
     atom    4 type  2   force =     0.00000009    0.00000006   -0.00003601
     atom    5 type  1   force =    -0.00000041   -0.00000033   -0.00009463
     atom    6 type  2   force =     0.00000006    0.00000002    0.00002910

     Total force =     0.017761     Total SCF correction =     0.000119

     BFGS Geometry Optimization

     number of scf cycles    =   1
     number of bfgs steps    =   0

     energy   new            =    -907.9195934953 Ry

     new trust radius        =       0.0090799213 bohr
     new conv_thr            =       0.0000000100 Ry

ATOMIC_POSITIONS (crystal)
S             0.3325002368        0.6649694636        0.2239028569
Nb           -0.0002830899       -0.0002655691        0.1470270240
S             0.3325002681        0.6666893069        0.0694543295
S             0.6649912147        0.3325005691        0.3522795369
Nb           -0.0005451249       -0.0002830205        0.4291542283
S             0.6649998422        0.3324981472        0.5067261941

     Writing output data file ./tmp/NbS2_bi.save/
     NEW-OLD atomic charge density approx. for the potential

[...]

     energy   old            =    -907.9195934953 Ry
     energy   new            =    -907.9198145043 Ry

     CASE: energy  _new < energy  _old

[...]

     number of scf cycles    =   4
     number of bfgs steps    =   3

     energy   old            =    -907.9198698702 Ry
     energy   new            =    -907.9198774612 Ry

     CASE: energy  _new < energy  _old

     new trust radius        =       0.0025873124 bohr
     new conv_thr            =            1.0E-10 Ry

ATOMIC_POSITIONS (crystal)
S             0.3326973167        0.6656348881        0.2239672808
Nb           -0.0007055126       -0.0006787529        0.1470646971
S             0.3327054920        0.6664579313        0.0691259142
S             0.6654251648        0.3327150851        0.3522139285
Nb           -0.0013810257       -0.0007143089        0.4291166046
S             0.6654219118        0.3326940545        0.5070557444

     Writing output data file ./tmp/NbS2_bi.save/
     NEW-OLD atomic charge density approx. for the potential

[...]

     Self-consistent Calculation

[...]

     Threshold (ethr) on eigenvalues was too large:
     Diagonalizing with lowered threshold

     Davidson diagonalization with overlap
     ethr =  3.17E-09,  avg # of iterations =  3.0

[...]

     total energy              =    -907.91988481 Ry
     estimated scf accuracy    <          1.5E-09 Ry

     iteration #  9     ecut=    40.00 Ry     beta= 0.70
     Davidson diagonalization with overlap
     ethr =  3.02E-12,  avg # of iterations =  1.0

[...]

     End of self-consistent calculation

[...]

          k =-0.3333-0.4811 0.0000 (  5370 PWs)   bands (ev):

[...]

          k = 0.5833-0.0481 0.0000 (  5370 PWs)   bands (ev):

   -51.4612 -51.4612 -27.8788 -27.8788 -27.7370 -27.7370 -27.6268 -27.6266
    -8.8858  -8.7293  -8.5015  -8.4918  -1.9057  -1.8141  -1.5349  -1.3677
    -0.5578  -0.2086  -0.0937   0.2710   0.4267   0.7461   1.4065   1.6987
     3.4627   3.5291   5.6508   5.7103   6.8948   6.9651   7.3483   7.6444
     8.3300   8.5184  10.0622  10.6855  11.1452  11.8341  12.1306  13.0809
    13.2623  13.4028  13.5953  14.1225  14.3495  14.6081  14.8158  15.1808
    15.2602  15.6707  15.9244  16.0590  16.1970  16.4231  16.8439  16.9104
    17.2649  17.6306  17.8864  18.7024

     occupation numbers
     1.0000   1.0000   1.0000   1.0000   1.0000   1.0000   1.0000   1.0000
     1.0000   1.0000   1.0000   1.0000   1.0000   1.0000   1.0000   1.0000
     1.0000   1.0000   1.0000   1.0000   1.0000   1.0000   1.0000   1.0000
    -0.0352  -0.0305  -0.0000  -0.0000  -0.0000  -0.0000  -0.0000  -0.0000
    -0.0000  -0.0000  -0.0000  -0.0000  -0.0000  -0.0000  -0.0000  -0.0000
    -0.0000  -0.0000  -0.0000  -0.0000  -0.0000  -0.0000  -0.0000  -0.0000
    -0.0000  -0.0000  -0.0000  -0.0000  -0.0000  -0.0000  -0.0000  -0.0000
    -0.0000  -0.0000  -0.0000  -0.0000

     the Fermi energy is     3.1392 ev

!    total energy              =    -907.91988481 Ry

     total all-electron energy =    -18448.328907 Ry
     estimated scf accuracy    <          6.7E-11 Ry
     smearing contrib. (-TS)   =      -0.00146018 Ry
     internal energy E=F+TS    =    -907.91842463 Ry

     The total energy is F=E-TS. E is the sum of the following terms:
     one-electron contribution =   -1381.80356186 Ry
     hartree contribution      =     704.23373569 Ry
     xc contribution           =     -65.42086375 Ry
     ewald contribution        =     423.33047969 Ry
     one-center paw contrib.   =    -588.25821441 Ry
      -> PAW hartree energy AE =     101.18318822 Ry
      -> PAW hartree energy PS =    -100.66881581 Ry
      -> PAW xc energy AE      =    -324.84136910 Ry
      -> PAW xc energy PS      =      30.19788961 Ry
      -> total E_H with PAW    =     704.74810810 Ry
      -> total E_XC with PAW   =    -360.06434324 Ry

     convergence has been achieved in   9 iterations

     negative rho (up, down):  1.850E-04 0.000E+00

     Forces acting on atoms (cartesian axes, Ry/au):

     atom    1 type  2   force =    -0.00020193    0.00020790   -0.00057627
     atom    2 type  1   force =     0.00006228    0.00010400   -0.00078336
     atom    3 type  2   force =     0.00011091   -0.00030011   -0.00023095
     atom    4 type  2   force =    -0.00006705   -0.00006044    0.00057870
     atom    5 type  1   force =     0.00018219    0.00011034    0.00078322
     atom    6 type  2   force =    -0.00008641   -0.00006169    0.00022866
     The non-local contrib.  to forces
     atom    1 type  2   force =    -0.00042083    0.00054007   -0.02833747
     atom    2 type  1   force =    -0.00001998    0.00000714   -0.01243739
     atom    3 type  2   force =     0.00024709   -0.00068141    0.10870339
     atom    4 type  2   force =    -0.00018465   -0.00018413    0.02834009
     atom    5 type  1   force =    -0.00002709   -0.00003042    0.01243537
     atom    6 type  2   force =    -0.00018447   -0.00011586   -0.10871118
     The ionic contribution  to forces
     atom    1 type  2   force =    -0.00238467    0.00255033   -1.41243067
     atom    2 type  1   force =     0.00077663    0.00072589  -53.04135380
     atom    3 type  2   force =     0.00115712   -0.00308764  -47.37671916
     atom    4 type  2   force =    -0.00035753   -0.00087765    1.41246067
     atom    5 type  1   force =     0.00161115    0.00122524   53.04135984
     atom    6 type  2   force =    -0.00080270   -0.00053616   47.37668312
     The local contribution  to forces
     atom    1 type  2   force =     0.00257965   -0.00285155    1.44616194
     atom    2 type  1   force =    -0.00069588   -0.00063044   53.05185818
     atom    3 type  2   force =    -0.00127934    0.00342945   47.26567745
     atom    4 type  2   force =     0.00046442    0.00099078   -1.44619023
     atom    5 type  1   force =    -0.00140569   -0.00108760  -53.05189766
     atom    6 type  2   force =     0.00088961    0.00058338  -47.26563862
     The core correction contribution to forces
     atom    1 type  2   force =     0.00002455   -0.00003145   -0.00597241
     atom    2 type  1   force =     0.00000205    0.00000238    0.00112553
     atom    3 type  2   force =    -0.00001394    0.00003996    0.00210890
     atom    4 type  2   force =     0.00001065    0.00001067    0.00597218
     atom    5 type  1   force =     0.00000530    0.00000387   -0.00112573
     atom    6 type  2   force =     0.00001116    0.00000698   -0.00210850
     The Hubbard contrib.    to forces
     atom    1 type  2   force =     0.00000000    0.00000000    0.00000000
     atom    2 type  1   force =     0.00000000    0.00000000    0.00000000
     atom    3 type  2   force =     0.00000000    0.00000000    0.00000000
     atom    4 type  2   force =     0.00000000    0.00000000    0.00000000
     atom    5 type  1   force =     0.00000000    0.00000000    0.00000000
     atom    6 type  2   force =     0.00000000    0.00000000    0.00000000
     The SCF correction term to forces
     atom    1 type  2   force =    -0.00000024    0.00000072    0.00000125
     atom    2 type  1   force =    -0.00000015   -0.00000074    0.00002303
     atom    3 type  2   force =     0.00000037   -0.00000024   -0.00000263
     atom    4 type  2   force =     0.00000046    0.00000013   -0.00000511
     atom    5 type  1   force =    -0.00000108   -0.00000050    0.00001032
     atom    6 type  2   force =     0.00000039    0.00000020    0.00000274

     Total force =     0.001505     Total SCF correction =     0.000026

     bfgs converged in   5 scf cycles and   4 bfgs steps
     (criteria: energy <  1.0E-04 Ry, force <  1.0E-03 Ry/Bohr)

     End of BFGS Geometry Optimization

     Final energy   =    -907.9198848072 Ry

     File ./tmp/NbS2_bi.bfgs deleted, as requested
Begin final coordinates

ATOMIC_POSITIONS (crystal)
S             0.3326973167        0.6656348881        0.2239672808
Nb           -0.0007055126       -0.0006787529        0.1470646971
S             0.3327054920        0.6664579313        0.0691259142
S             0.6654251648        0.3327150851        0.3522139285
Nb           -0.0013810257       -0.0007143089        0.4291166046
S             0.6654219118        0.3326940545        0.5070557444
End final coordinates

     Writing output data file ./tmp/NbS2_bi.save/

     General routines

     Parallel routines

     PAW routines

   This run was terminated on:   1:34:59  15Jun2021

   JOB DONE.