     Program PHONON v.6.6 starts on 17Jun2021 at 14:39:53

     R & G space division:  proc/nbgrp/npool/nimage =       2
     Fft bands division:     nmany     =       1

     Reading xml data from directory:

     ./MgB2.save/

     IMPORTANT: XC functional enforced from input :
     Exchange-correlation= PZ
                           (   1   1   0   0   0   0   0)
     Any further DFT definition will be discarded
     Please, verify this is what you really want

     Reading collected, re-writing distributed wavefunctions

     Dynamical matrices for ( 6, 6, 6)  uniform grid of q-points
     (  28 q-points):
       N         xq(1)         xq(2)         xq(3)
       1   0.000000000   0.000000000   0.000000000
       2   0.000000000   0.000000000   0.145933920
       3   0.000000000   0.000000000   0.291867841
       4   0.000000000   0.000000000  -0.437801761
       5   0.000000000   0.192450090   0.000000000
       6   0.000000000   0.192450090   0.145933920
       7   0.000000000   0.192450090   0.291867841
       8   0.000000000   0.192450090  -0.437801761
       9   0.000000000   0.384900179   0.000000000
      10   0.000000000   0.384900179   0.145933920
      11   0.000000000   0.384900179   0.291867841
      12   0.000000000   0.384900179  -0.437801761
      13   0.000000000  -0.577350269   0.000000000
      14   0.000000000  -0.577350269   0.145933920
      15   0.000000000  -0.577350269   0.291867841
      16   0.000000000  -0.577350269  -0.437801761
      17   0.166666667   0.288675135   0.000000000
      18   0.166666667   0.288675135   0.145933920
      19   0.166666667   0.288675135   0.291867841
      20   0.166666667   0.288675135  -0.437801761
      21   0.166666667   0.481125224   0.000000000
      22   0.166666667   0.481125224   0.145933920
      23   0.166666667   0.481125224   0.291867841
      24   0.166666667   0.481125224  -0.437801761
      25   0.333333333   0.577350269   0.000000000
      26   0.333333333   0.577350269   0.145933920
      27   0.333333333   0.577350269   0.291867841
      28   0.333333333   0.577350269  -0.437801761

     Saving dvscf to file. Distribute only q points, not irreducible represetations.

     Calculation of q =    0.0000000   0.0000000   0.0000000

     --

     bravais-lattice index     =            4
     lattice parameter (alat)  =       5.8260  a.u.
     unit-cell volume          =     195.5871 (a.u.)^3
     number of atoms/cell      =            3
     number of atomic types    =            2
     kinetic-energy cut-off    =      40.0000  Ry
     charge density cut-off    =     160.0000  Ry
     convergence threshold     =      1.0E-14
     beta                      =       0.7000
     number of iterations used =            4
     Exchange-correlation= PZ
                           (   1   1   0   0   0   0   0)

     celldm(1)=    5.82603  celldm(2)=    0.00000  celldm(3)=    1.14207
     celldm(4)=    0.00000  celldm(5)=    0.00000  celldm(6)=    0.00000

     crystal axes: (cart. coord. in units of alat)
               a(1) = (  1.0000  0.0000  0.0000 )
               a(2) = ( -0.5000  0.8660  0.0000 )
               a(3) = (  0.0000  0.0000  1.1421 )

     reciprocal axes: (cart. coord. in units 2 pi/alat)
               b(1) = (  1.0000  0.5774 -0.0000 )
               b(2) = (  0.0000  1.1547  0.0000 )
               b(3) = (  0.0000 -0.0000  0.8756 )

     Atoms inside the unit cell:

     Cartesian axes

     site n.  atom      mass           positions (alat units)
        1     Mg  24.3050   tau(    1) = (    0.00000    0.00000    0.00000  )
        2     B   10.8110   tau(    2) = (   -0.00000    0.57735    0.57103  )
        3     B   10.8110   tau(    3) = (    0.50000    0.28868    0.57103  )

     Computing dynamical matrix for
                    q = (   0.0000000   0.0000000   0.0000000 )

     25 Sym.Ops. (with q -> -q+G )

     G cutoff =  137.5641  (   3328 G-vectors)     FFT grid: ( 24, 24, 27)

     number of k points=   133  Methfessel-Paxton smearing, width (Ry)=  0.0200

     PseudoPot. # 1 for Mg read from file:
     ../pp/Mg.pz-n-vbc.UPF
     MD5 check sum: 51ac066f8f4bf7da60c51ce0af5caf3d
     Pseudo is Norm-conserving + core correction, Zval =  2.0
     Generated by new atomic code, or converted to UPF format
     Using radial grid of  171 points,  2 beta functions with:
                l(1) =   0
                l(2) =   1

     PseudoPot. # 2 for B  read from file:
     ../pp/B.pz-vbc.UPF
     MD5 check sum: b59596b5d63edeea6a2b3a0beace49c5
     Pseudo is Norm-conserving, Zval =  3.0
     Generated by new atomic code, or converted to UPF format
     Using radial grid of  157 points,  1 beta functions with:
                l(1) =   0

     Mode symmetry, D_6h(6/mmm) point group:

     Atomic displacements:
     There are    6 irreducible representations

     Representation     1      1 modes -  To be done

[...]

     Alpha used in Ewald sum =   1.7000

     Representation #   1 mode #   1

     Self-consistent Calculation

     Pert. #  1: Fermi energy shift (Ry) =     0.0000E+00     0.0000E+00

      thresh= 1.000E-02 alpha_mix =  0.700 |ddv_scf|^2 =  1.367E-07

[...]

     End of self-consistent calculation

     Convergence has been achieved

     Representation #   2 modes #   2   3

[...]

     Pert. #  1: Fermi energy shift (Ry) =    -1.2054E-25    -4.7831E-43
     Pert. #  2: Fermi energy shift (Ry) =    -5.1699E-26    -3.8265E-42

[...]

     Number of q in the star =    1
     List of q in the star:
          1   0.000000000   0.000000000   0.000000000

     Diagonalizing the dynamical matrix

     q = (    0.000000000   0.000000000   0.000000000 )

     freq (    1) =      -0.505800 [THz] =     -16.871674 [cm-1]
     freq (    2) =       0.627762 [THz] =      20.939900 [cm-1]
     freq (    3) =       0.627762 [THz] =      20.939900 [cm-1]
     freq (    4) =       9.817751 [THz] =     327.484915 [cm-1]
     freq (    5) =       9.817751 [THz] =     327.484915 [cm-1]
     freq (    6) =      11.676761 [THz] =     389.494807 [cm-1]
     freq (    7) =      15.146129 [THz] =     505.220488 [cm-1]
     freq (    8) =      15.146129 [THz] =     505.220488 [cm-1]
     freq (    9) =      21.011296 [THz] =     700.861409 [cm-1]

[...]

     freq (   1-   1) =        -16.9  [cm-1]   --> A_2u            I
     freq (   2-   3) =         20.9  [cm-1]   --> E_1u            I
     freq (   4-   5) =        327.5  [cm-1]   --> E_1u            I
     freq (   6-   6) =        389.5  [cm-1]   --> A_2u            I
     freq (   7-   8) =        505.2  [cm-1]   --> E_2g            R
     freq (   9-   9) =        700.9  [cm-1]   --> B_1g

[...]

     Subspace diagonalization in iterative solution of the eigenvalue problem:
     a serial algorithm will be used

     Title:
     --

     bravais-lattice index     =            4
     lattice parameter (alat)  =       5.8260  a.u.
     unit-cell volume          =     195.5871 (a.u.)^3
     number of atoms/cell      =            3
     number of atomic types    =            2
     number of electrons       =         8.00
     number of Kohn-Sham states=            8
     kinetic-energy cutoff     =      40.0000  Ry
     charge density cutoff     =     160.0000  Ry
     Exchange-correlation= PZ
                           (   1   1   0   0   0   0   0)

[...]

     atomic species   valence    mass     pseudopotential
        Mg             2.00    24.30500     Mg( 1.00)
        B              3.00    10.81100     B ( 1.00)

     24 Sym. Ops., with inversion, found

[...]

     site n.     atom                  positions (alat units)
         1           Mg  tau(   1) = (   0.0000000   0.0000000   0.0000000  )
         2           B   tau(   2) = (  -0.0000000   0.5773503   0.5710347  )
         3           B   tau(   3) = (   0.5000000   0.2886751   0.5710347  )

[...]

     Number of k-points >= 100: set verbosity='high' to print them.

     The potential is recalculated from file :
     ./_ph0/MgB2.q_2/MgB2.save/charge-density

     Starting wfcs are   12 atomic wfcs

     Band Structure Calculation
     Davidson diagonalization with overlap

     ethr =  1.25E-10,  avg # of iterations = 17.7

     End of band structure calculation

     Number of k-points >= 100: set verbosity='high' to print the bands.

     the Fermi energy is     7.4185 ev

     Writing output data file ./_ph0/MgB2.q_2/MgB2.save/

[...]

     12 Sym.Ops. (no q -> -q+G )

[...]

     Mode symmetry, C_6v (6mm)  point group:

[...]

     freq (   1-   2) =         84.1  [cm-1]   --> E_1
     freq (   3-   3) =        144.5  [cm-1]   --> A_1
     freq (   4-   5) =        315.3  [cm-1]   --> E_1
     freq (   6-   6) =        391.5  [cm-1]   --> A_1
     freq (   7-   8) =        470.2  [cm-1]   --> E_2
     freq (   9-   9) =        692.2  [cm-1]   --> B_1

[...]

     Mode symmetry, C_6v (6mm)  point group:

     freq (   1-   2) =        153.2  [cm-1]   --> E_1
     freq (   3-   3) =        254.1  [cm-1]   --> A_1
     freq (   4-   5) =        275.0  [cm-1]   --> E_1
     freq (   6-   6) =        395.2  [cm-1]   --> A_1
     freq (   7-   8) =        433.8  [cm-1]   --> E_2
     freq (   9-   9) =        659.7  [cm-1]   --> B_1

[...]

     Mode symmetry, D_6h(6/mmm) point group:

     freq (   1-   2) =        219.4  [cm-1]   --> E_1u
     freq (   3-   4) =        222.2  [cm-1]   --> E_1g
     freq (   5-   5) =        309.8  [cm-1]   --> A_2u
     freq (   6-   6) =        377.1  [cm-1]   --> A_1g
     freq (   7-   8) =        392.2  [cm-1]   --> E_2u
     freq (   9-   9) =        643.5  [cm-1]   --> B_2u

[...]

     Mode symmetry, C_2v (mm2)  point group:

[...]

     freq (   1-   1) =        108.8  [cm-1]   --> B_2  D_4  S_4
     freq (   2-   2) =        153.7  [cm-1]   --> B_1  D_3  S_3
     freq (   3-   3) =        216.4  [cm-1]   --> A_1  D_1  S_1
     freq (   4-   4) =        355.3  [cm-1]   --> B_1  D_3  S_3
     freq (   5-   5) =        379.0  [cm-1]   --> B_2  D_4  S_4
     freq (   6-   6) =        398.2  [cm-1]   --> A_1  D_1  S_1
     freq (   7-   7) =        508.1  [cm-1]   --> A_1  D_1  S_1
     freq (   8-   8) =        516.8  [cm-1]   --> B_1  D_3  S_3
     freq (   9-   9) =        686.4  [cm-1]   --> B_2  D_4  S_4

[...]

     Mode symmetry, C_s (m)     point group:

[...]

     freq (   1-   1) =        163.1  [cm-1]   --> A'
     freq (   2-   2) =        170.3  [cm-1]   --> A''
     freq (   3-   3) =        234.0  [cm-1]   --> A'
     freq (   4-   4) =        346.6  [cm-1]   --> A''
     freq (   5-   5) =        371.9  [cm-1]   --> A'
     freq (   6-   6) =        404.2  [cm-1]   --> A'
     freq (   7-   7) =        492.1  [cm-1]   --> A'
     freq (   8-   8) =        512.8  [cm-1]   --> A''
     freq (   9-   9) =        678.2  [cm-1]   --> A'

[...]

     freq (   1-   1) =        205.4  [cm-1]   --> A''
     freq (   2-   2) =        214.6  [cm-1]   --> A'
     freq (   3-   3) =        270.6  [cm-1]   --> A'
     freq (   4-   4) =        321.8  [cm-1]   --> A''
     freq (   5-   5) =        369.9  [cm-1]   --> A'
     freq (   6-   6) =        406.4  [cm-1]   --> A'
     freq (   7-   7) =        479.4  [cm-1]   --> A''
     freq (   8-   8) =        508.8  [cm-1]   --> A'
     freq (   9-   9) =        656.6  [cm-1]   --> A'

[...]

     freq (   1-   1) =        231.1  [cm-1]   --> A'
     freq (   2-   2) =        231.6  [cm-1]   --> A''
     freq (   3-   3) =        300.0  [cm-1]   --> A'
     freq (   4-   4) =        391.7  [cm-1]   --> A'
     freq (   5-   5) =        429.7  [cm-1]   --> A''
     freq (   6-   6) =        581.9  [cm-1]   --> A'
     freq (   7-   7) =        620.6  [cm-1]   --> A'
     freq (   8-   8) =        675.9  [cm-1]   --> A''
     freq (   9-   9) =        753.5  [cm-1]   --> A'

[...]

     Mode symmetry, D_2h (mmm)  point group:

[...]

     freq (   1-   1) =        246.1  [cm-1]   --> B_3u
     freq (   2-   2) =        255.6  [cm-1]   --> B_1u
     freq (   3-   3) =        325.9  [cm-1]   --> B_2u
     freq (   4-   4) =        426.8  [cm-1]   --> B_3g
     freq (   5-   5) =        464.7  [cm-1]   --> B_1g
     freq (   6-   6) =        499.0  [cm-1]   --> B_1u
     freq (   7-   7) =        669.6  [cm-1]   --> B_3u
     freq (   8-   8) =        684.8  [cm-1]   --> A_g
     freq (   9-   9) =        740.8  [cm-1]   --> B_2u

[...]

      9 Sym.Ops. (with q -> -q+G )

[...]

     Mode symmetry, D_2h (mmm)  point group:

     freq (   1-   1) =        251.8  [cm-1]   --> B_2u
     freq (   2-   2) =        264.2  [cm-1]   --> B_1u
     freq (   3-   3) =        304.7  [cm-1]   --> B_3u
     freq (   4-   4) =        466.9  [cm-1]   --> A_u
     freq (   5-   5) =        483.7  [cm-1]   --> B_3u
     freq (   6-   6) =        528.1  [cm-1]   --> A_g
     freq (   7-   7) =        677.4  [cm-1]   --> B_3g
     freq (   8-   8) =        712.7  [cm-1]   --> B_1u
     freq (   9-   9) =        742.1  [cm-1]   --> B_2g

[...]

     freq (   1-   1) =        213.7  [cm-1]   --> A'
     freq (   2-   2) =        226.7  [cm-1]   --> A''
     freq (   3-   3) =        286.6  [cm-1]   --> A'
     freq (   4-   4) =        384.9  [cm-1]   --> A'
     freq (   5-   5) =        444.0  [cm-1]   --> A''
     freq (   6-   6) =        516.6  [cm-1]   --> A'
     freq (   7-   7) =        642.0  [cm-1]   --> A''
     freq (   8-   8) =        681.8  [cm-1]   --> A'
     freq (   9-   9) =        756.4  [cm-1]   --> A''

[...]

     freq (   1-   1) =        239.9  [cm-1]   --> A''
     freq (   2-   2) =        244.6  [cm-1]   --> A'
     freq (   3-   3) =        285.3  [cm-1]   --> A'
     freq (   4-   4) =        410.0  [cm-1]   --> A'
     freq (   5-   5) =        438.0  [cm-1]   --> A''
     freq (   6-   6) =        521.5  [cm-1]   --> A'
     freq (   7-   7) =        630.5  [cm-1]   --> A''
     freq (   8-   8) =        678.9  [cm-1]   --> A'
     freq (   9-   9) =        772.7  [cm-1]   --> A''

[...]

     Mode symmetry, C_2v (mm2)  point group:

     freq (   1-   1) =        246.9  [cm-1]   --> B_1  D_3  S_3
     freq (   2-   2) =        261.6  [cm-1]   --> A_1  D_1  S_1
     freq (   3-   3) =        277.2  [cm-1]   --> B_2  D_4  S_4
     freq (   4-   4) =        420.8  [cm-1]   --> A_1  D_1  S_1
     freq (   5-   5) =        432.4  [cm-1]   --> A_2  D_2  S_2
     freq (   6-   6) =        523.9  [cm-1]   --> B_2  D_4  S_4
     freq (   7-   7) =        623.7  [cm-1]   --> B_1  D_3  S_3
     freq (   8-   8) =        666.5  [cm-1]   --> B_2  D_4  S_4
     freq (   9-   9) =        777.9  [cm-1]   --> A_2  D_2  S_2

[...]

     freq (   1-   1) =        251.6  [cm-1]   --> A''
     freq (   2-   2) =        255.9  [cm-1]   --> A'
     freq (   3-   3) =        312.5  [cm-1]   --> A'
     freq (   4-   4) =        400.8  [cm-1]   --> A''
     freq (   5-   5) =        526.7  [cm-1]   --> A'
     freq (   6-   6) =        550.3  [cm-1]   --> A''
     freq (   7-   7) =        647.4  [cm-1]   --> A'
     freq (   8-   8) =        708.0  [cm-1]   --> A'
     freq (   9-   9) =        755.2  [cm-1]   --> A'

[...]

     No symmetry!

[...]

     Mode symmetry, C_1 (1)     point group:

[...]

     freq (   1-   1) =        255.4  [cm-1]   --> A
     freq (   2-   2) =        258.1  [cm-1]   --> A
     freq (   3-   3) =        308.7  [cm-1]   --> A
     freq (   4-   4) =        422.0  [cm-1]   --> A
     freq (   5-   5) =        526.9  [cm-1]   --> A
     freq (   6-   6) =        551.3  [cm-1]   --> A
     freq (   7-   7) =        649.6  [cm-1]   --> A
     freq (   8-   8) =        703.7  [cm-1]   --> A
     freq (   9-   9) =        759.4  [cm-1]   --> A

[...]

     No symmetry!

[...]

     Mode symmetry, C_1 (1)     point group:

     freq (   1-   1) =        262.2  [cm-1]   --> A
     freq (   2-   2) =        263.1  [cm-1]   --> A
     freq (   3-   3) =        300.3  [cm-1]   --> A
     freq (   4-   4) =        454.7  [cm-1]   --> A
     freq (   5-   5) =        526.6  [cm-1]   --> A
     freq (   6-   6) =        554.8  [cm-1]   --> A
     freq (   7-   7) =        654.6  [cm-1]   --> A
     freq (   8-   8) =        689.1  [cm-1]   --> A
     freq (   9-   9) =        763.5  [cm-1]   --> A

[...]

     Mode symmetry, C_s (m)     point group:

     freq (   1-   1) =        265.7  [cm-1]   --> A'
     freq (   2-   2) =        266.0  [cm-1]   --> A''
     freq (   3-   3) =        296.7  [cm-1]   --> A'
     freq (   4-   4) =        466.8  [cm-1]   --> A'
     freq (   5-   5) =        526.8  [cm-1]   --> A''
     freq (   6-   6) =        557.5  [cm-1]   --> A'
     freq (   7-   7) =        657.2  [cm-1]   --> A''
     freq (   8-   8) =        684.7  [cm-1]   --> A''
     freq (   9-   9) =        765.1  [cm-1]   --> A''

[...]

     Mode symmetry, D_3h (-62m) point group:

[...]

     freq (   1-   1) =        260.5  [cm-1]   --> A''2
     freq (   2-   3) =        292.5  [cm-1]   --> E'
     freq (   4-   5) =        447.1  [cm-1]   --> E''
     freq (   6-   6) =        654.0  [cm-1]   --> A'_2
     freq (   7-   8) =        673.8  [cm-1]   --> E'
     freq (   9-   9) =        714.5  [cm-1]   --> A'_1

[...]

     Mode symmetry, C_3v (3m)   point group:

[...]

     freq (   1-   1) =        261.4  [cm-1]   --> A_1  L_1
     freq (   2-   3) =        291.0  [cm-1]   --> E    L_3
     freq (   4-   5) =        463.7  [cm-1]   --> E    L_3
     freq (   6-   6) =        655.2  [cm-1]   --> A_2  L_2
     freq (   7-   8) =        674.0  [cm-1]   --> E    L_3
     freq (   9-   9) =        715.6  [cm-1]   --> A_1  L_1

[...]

     Mode symmetry, C_3v (3m)   point group:

     freq (   1-   1) =        263.3  [cm-1]   --> A_1  L_1
     freq (   2-   3) =        293.4  [cm-1]   --> E    L_3
     freq (   4-   5) =        491.0  [cm-1]   --> E    L_3
     freq (   6-   6) =        657.2  [cm-1]   --> A_2  L_2
     freq (   7-   8) =        675.1  [cm-1]   --> E    L_3
     freq (   9-   9) =        702.7  [cm-1]   --> A_1  L_1

     Calculation of q =    0.3333333   0.5773503  -0.4378018

     Title:
     --

     bravais-lattice index     =            4
     lattice parameter (alat)  =       5.8260  a.u.
     unit-cell volume          =     195.5871 (a.u.)^3
     number of atoms/cell      =            3
     number of atomic types    =            2
     number of electrons       =         8.00
     number of Kohn-Sham states=            8
     kinetic-energy cutoff     =      40.0000  Ry
     charge density cutoff     =     160.0000  Ry
     Exchange-correlation= PZ
                           (   1   1   0   0   0   0   0)

[...]

     atomic species   valence    mass     pseudopotential
        Mg             2.00    24.30500     Mg( 1.00)
        B              3.00    10.81100     B ( 1.00)

     24 Sym. Ops., with inversion, found

[...]

     site n.     atom                  positions (alat units)
         1           Mg  tau(   1) = (   0.0000000   0.0000000   0.0000000  )
         2           B   tau(   2) = (  -0.0000000   0.5773503   0.5710347  )
         3           B   tau(   3) = (   0.5000000   0.2886751   0.5710347  )

[...]

     Number of k-points >= 100: set verbosity='high' to print them.

     The potential is recalculated from file :
     ./_ph0/MgB2.q_28/MgB2.save/charge-density

     Starting wfcs are   12 atomic wfcs

     Band Structure Calculation
     Davidson diagonalization with overlap

     ethr =  1.25E-10,  avg # of iterations = 17.6

     End of band structure calculation

     Number of k-points >= 100: set verbosity='high' to print the bands.

     the Fermi energy is     7.4185 ev

     Writing output data file ./_ph0/MgB2.q_28/MgB2.save/

     --

     bravais-lattice index     =            4
     lattice parameter (alat)  =       5.8260  a.u.
     unit-cell volume          =     195.5871 (a.u.)^3
     number of atoms/cell      =            3
     number of atomic types    =            2
     kinetic-energy cut-off    =      40.0000  Ry
     charge density cut-off    =     160.0000  Ry
     convergence threshold     =      1.0E-14
     beta                      =       0.7000
     number of iterations used =            4
     Exchange-correlation= PZ
                           (   1   1   0   0   0   0   0)

     celldm(1)=    5.82603  celldm(2)=    0.00000  celldm(3)=    1.14207
     celldm(4)=    0.00000  celldm(5)=    0.00000  celldm(6)=    0.00000

     crystal axes: (cart. coord. in units of alat)
               a(1) = (  1.0000  0.0000  0.0000 )
               a(2) = ( -0.5000  0.8660  0.0000 )
               a(3) = (  0.0000  0.0000  1.1421 )

     reciprocal axes: (cart. coord. in units 2 pi/alat)
               b(1) = (  1.0000  0.5774 -0.0000 )
               b(2) = (  0.0000  1.1547  0.0000 )
               b(3) = (  0.0000 -0.0000  0.8756 )

     Atoms inside the unit cell:

     Cartesian axes

     site n.  atom      mass           positions (alat units)
        1     Mg  24.3050   tau(    1) = (    0.00000    0.00000    0.00000  )
        2     B   10.8110   tau(    2) = (   -0.00000    0.57735    0.57103  )
        3     B   10.8110   tau(    3) = (    0.50000    0.28868    0.57103  )

     Computing dynamical matrix for
                    q = (   0.3333333   0.5773503  -0.4378018 )

     12 Sym.Ops. (no q -> -q+G )

     G cutoff =  137.5641  (   3328 G-vectors)     FFT grid: ( 24, 24, 27)

     number of k points=   434  Methfessel-Paxton smearing, width (Ry)=  0.0200

     PseudoPot. # 1 for Mg read from file:
     ../pp/Mg.pz-n-vbc.UPF
     MD5 check sum: 51ac066f8f4bf7da60c51ce0af5caf3d
     Pseudo is Norm-conserving + core correction, Zval =  2.0
     Generated by new atomic code, or converted to UPF format
     Using radial grid of  171 points,  2 beta functions with:
                l(1) =   0
                l(2) =   1

     PseudoPot. # 2 for B  read from file:
     ../pp/B.pz-vbc.UPF
     MD5 check sum: b59596b5d63edeea6a2b3a0beace49c5
     Pseudo is Norm-conserving, Zval =  3.0
     Generated by new atomic code, or converted to UPF format
     Using radial grid of  157 points,  1 beta functions with:
                l(1) =   0

[...]

     Atomic displacements:
     There are    6 irreducible representations

[...]

     Representation     6      2 modes -  To be done

     Alpha used in Ewald sum =   1.7000

[...]

     Representation #   5 mode #   7

[...]

     Representation #   6 modes #   8   9

     Self-consistent Calculation

[...]

      thresh= 3.272E-07 alpha_mix =  0.700 |ddv_scf|^2 =  6.927E-15

     End of self-consistent calculation

     Convergence has been achieved

     Number of q in the star =    2
     List of q in the star:
          1   0.333333333   0.577350269  -0.437801761
          2  -0.333333333  -0.577350269  -0.437801761

     Diagonalizing the dynamical matrix

     q = (    0.333333333   0.577350269  -0.437801761 )

     freq (    1) =       7.944889 [THz] =     265.012968 [cm-1]
     freq (    2) =       8.829538 [THz] =     294.521678 [cm-1]
     freq (    3) =       8.829538 [THz] =     294.521678 [cm-1]
     freq (    4) =      15.009734 [THz] =     500.670851 [cm-1]
     freq (    5) =      15.009735 [THz] =     500.670851 [cm-1]
     freq (    6) =      19.730484 [THz] =     658.138090 [cm-1]
     freq (    7) =      20.236610 [THz] =     675.020661 [cm-1]
     freq (    8) =      20.236610 [THz] =     675.020662 [cm-1]
     freq (    9) =      20.692714 [THz] =     690.234636 [cm-1]

     Mode symmetry, D_3h (-62m) point group:

     freq (   1-   1) =        265.0  [cm-1]   --> A''2
     freq (   2-   3) =        294.5  [cm-1]   --> E'
     freq (   4-   5) =        500.7  [cm-1]   --> E'
     freq (   6-   6) =        658.1  [cm-1]   --> A''1
     freq (   7-   8) =        675.0  [cm-1]   --> E''
     freq (   9-   9) =        690.2  [cm-1]   --> A''2

     General routines

     Parallel routines

     INITIALIZATION:

     DYNAMICAL MATRIX:

      General routines

   This run was terminated on:  20: 2:29  17Jun2021

   JOB DONE.
Note: The following floating-point exceptions are signalling: IEEE_UNDERFLOW_FLAG IEEE_DENORMAL
Note: The following floating-point exceptions are signalling: IEEE_UNDERFLOW_FLAG IEEE_DENORMAL