     Program PWSCF v.6.6 starts on 14Jun2021 at 22:42: 9

     R & G space division:  proc/nbgrp/npool/nimage =       2
     Fft bands division:     nmany     =       1
     Waiting for input...
     Reading input from standard input

     Current dimensions of program PWSCF are:
     Max number of different atomic species (ntypx) = 10
     Max number of k-points (npk) =  40000
     Max angular momentum in pseudopotentials (lmaxx) =  3
     file Nb.pz-spn-kjpaw_psl.1.0.0.UPF: wavefunction(s)  4S 4P 4D renormalized
     file S.pz-n-kjpaw_psl.0.1.UPF: wavefunction(s)  3P renormalized

     Subspace diagonalization in iterative solution of the eigenvalue problem:
     a serial algorithm will be used

     bravais-lattice index     =            4
     lattice parameter (alat)  =       6.2006  a.u.
     unit-cell volume          =     817.9674 (a.u.)^3
     number of atoms/cell      =            6
     number of atomic types    =            2
     number of electrons       =        50.00
     number of Kohn-Sham states=           60
     kinetic-energy cutoff     =      40.0000  Ry
     charge density cutoff     =     400.0000  Ry
     convergence threshold     =      1.0E-08
     mixing beta               =       0.7000
     number of iterations used =            8  plain     mixing
     Exchange-correlation= SLA PZ NOGX NOGC
                           (   1   1   0   0   0   0   0)
     nstep                     =           50

     celldm(1)=   6.200569  celldm(2)=   0.000000  celldm(3)=   3.961965
     celldm(4)=   0.000000  celldm(5)=   0.000000  celldm(6)=   0.000000

     crystal axes: (cart. coord. in units of alat)
               a(1) = (   1.000000   0.000000   0.000000 )
               a(2) = (  -0.500000   0.866025   0.000000 )
               a(3) = (   0.000000   0.000000   3.961965 )

     reciprocal axes: (cart. coord. in units 2 pi/alat)
               b(1) = (  1.000000  0.577350 -0.000000 )
               b(2) = (  0.000000  1.154701  0.000000 )
               b(3) = (  0.000000 -0.000000  0.252400 )

     PseudoPot. # 1 for Nb read from file:
     ../Nb.pz-spn-kjpaw_psl.1.0.0.UPF
     MD5 check sum: 38c2e04b3cc915696ca8dc9f46a23270
     Pseudo is Projector augmented-wave + core cor, Zval = 13.0
     Generated using "atomic" code by A. Dal Corso v.6.2.2
     Shape of augmentation charge: PSQ
     Using radial grid of 1227 points,  6 beta functions with:
                l(1) =   0
                l(2) =   0
                l(3) =   1
                l(4) =   1
                l(5) =   2
                l(6) =   2
     Q(r) pseudized with 0 coefficients

     PseudoPot. # 2 for S  read from file:
     ../S.pz-n-kjpaw_psl.0.1.UPF
     MD5 check sum: c0b1682311cf098e03f7841691d9a679
     Pseudo is Projector augmented-wave + core cor, Zval =  6.0
     Generated using "atomic" code by A. Dal Corso v.5.0.2 svn rev. 9415
     Shape of augmentation charge: PSQ
     Using radial grid of 1151 points,  4 beta functions with:
                l(1) =   0
                l(2) =   0
                l(3) =   1
                l(4) =   1
     Q(r) pseudized with 0 coefficients

     atomic species   valence    mass     pseudopotential
        Nb            13.00    92.90600     Nb( 1.00)
        S              6.00    32.06500     S ( 1.00)

      6 Sym. Ops. (no inversion) found

                                    s                        frac. trans.

      isym =  1     identity

 cryst.   s( 1) = (     1          0          0      )
                  (     0          1          0      )
                  (     0          0          1      )

 cart.    s( 1) = (  1.0000000  0.0000000  0.0000000 )
                  (  0.0000000  1.0000000  0.0000000 )
                  (  0.0000000  0.0000000  1.0000000 )

      isym =  2     120 deg rotation - cryst. axis [0,0,1]

[...]

      isym =  4     inv. 180 deg rotation - cart. axis [1,0,0]

[...]

      isym =  5     inv. 180 deg rotation - cryst. axis [0,1,0]

[...]

     point group C_3v (3m)
     there are  3 classes
     the character table:

       E     2C3   3s_v
A_1    1.00  1.00  1.00
A_2    1.00  1.00 -1.00
E      2.00 -1.00  0.00

     the symmetry operations in each class and the name of the first element:

     E        1
          identity
     2C3      2    3
          120 deg rotation - cryst. axis [0,0,1]
     3s_v     4    5    6
          inv. 180 deg rotation - cart. axis [1,0,0]

   Cartesian axes

     site n.     atom                  positions (alat units)
         1           S   tau(   1) = (   0.0000000   0.5773503   1.4932768  )
         2           Nb  tau(   2) = (   0.0000000   0.0000000   1.0094618  )
         3           S   tau(   3) = (   0.0000000   0.5773503   0.5321904  )
         4           S   tau(   4) = (   0.5000000   0.2886751   2.5511139  )
         5           Nb  tau(   5) = (   0.0000000   0.0000000   3.0283905  )
         6           S   tau(   6) = (   0.5000000   0.2886751   3.5056620  )

   Crystallographic axes

     site n.     atom                  positions (cryst. coord.)
         1           S   tau(   1) = (  0.3333333  0.6666667  0.3769031  )
         2           Nb  tau(   2) = (  0.0000000  0.0000000  0.2547882  )
         3           S   tau(   3) = (  0.3333333  0.6666667  0.1343248  )
         4           S   tau(   4) = (  0.6666667  0.3333333  0.6439012  )
         5           Nb  tau(   5) = (  0.0000000  0.0000000  0.7643658  )
         6           S   tau(   6) = (  0.6666667  0.3333333  0.8848291  )

     number of k points=    19  Methfessel-Paxton smearing, width (Ry)=  0.0200
                       cart. coord. in units 2pi/alat
        k(    1) = (   0.0000000   0.0000000   0.0000000), wk =   0.0138889
        k(    2) = (   0.0000000   0.0962250   0.0000000), wk =   0.0833333
        k(    3) = (   0.0000000   0.1924501   0.0000000), wk =   0.0833333
        k(    4) = (   0.0000000   0.2886751   0.0000000), wk =   0.0833333
        k(    5) = (   0.0000000   0.3849002   0.0000000), wk =   0.0833333
        k(    6) = (   0.0000000   0.4811252   0.0000000), wk =   0.0833333
        k(    7) = (   0.0000000  -0.5773503   0.0000000), wk =   0.0416667
        k(    8) = (   0.0833333   0.1443376   0.0000000), wk =   0.0833333
        k(    9) = (   0.0833333   0.2405626   0.0000000), wk =   0.1666667
        k(   10) = (   0.0833333   0.3367877   0.0000000), wk =   0.1666667
        k(   11) = (   0.0833333   0.4330127   0.0000000), wk =   0.1666667
        k(   12) = (   0.0833333   0.5292377   0.0000000), wk =   0.1666667
        k(   13) = (   0.1666667   0.2886751   0.0000000), wk =   0.0833333
        k(   14) = (   0.1666667   0.3849002   0.0000000), wk =   0.1666667
        k(   15) = (   0.1666667   0.4811252   0.0000000), wk =   0.1666667
        k(   16) = (   0.1666667   0.5773503   0.0000000), wk =   0.0833333
        k(   17) = (   0.2500000   0.4330127   0.0000000), wk =   0.0833333
        k(   18) = (   0.2500000   0.5292377   0.0000000), wk =   0.1666667
        k(   19) = (   0.3333333   0.5773503   0.0000000), wk =   0.0277778

                       cryst. coord.
        k(    1) = (   0.0000000   0.0000000   0.0000000), wk =   0.0138889
        k(    2) = (   0.0000000   0.0833333   0.0000000), wk =   0.0833333
        k(    3) = (   0.0000000   0.1666667   0.0000000), wk =   0.0833333
        k(    4) = (   0.0000000   0.2500000   0.0000000), wk =   0.0833333
        k(    5) = (   0.0000000   0.3333333   0.0000000), wk =   0.0833333
        k(    6) = (   0.0000000   0.4166667   0.0000000), wk =   0.0833333
        k(    7) = (   0.0000000  -0.5000000   0.0000000), wk =   0.0416667
        k(    8) = (   0.0833333   0.0833333   0.0000000), wk =   0.0833333
        k(    9) = (   0.0833333   0.1666667   0.0000000), wk =   0.1666667
        k(   10) = (   0.0833333   0.2500000   0.0000000), wk =   0.1666667
        k(   11) = (   0.0833333   0.3333333   0.0000000), wk =   0.1666667
        k(   12) = (   0.0833333   0.4166667   0.0000000), wk =   0.1666667
        k(   13) = (   0.1666667   0.1666667   0.0000000), wk =   0.0833333
        k(   14) = (   0.1666667   0.2500000   0.0000000), wk =   0.1666667
        k(   15) = (   0.1666667   0.3333333   0.0000000), wk =   0.1666667
        k(   16) = (   0.1666667   0.4166667   0.0000000), wk =   0.0833333
        k(   17) = (   0.2500000   0.2500000   0.0000000), wk =   0.0833333
        k(   18) = (   0.2500000   0.3333333   0.0000000), wk =   0.1666667
        k(   19) = (   0.3333333   0.3333333   0.0000000), wk =   0.0277778

     Initial potential from superposition of free atoms

     starting charge   49.99775, renormalised to   50.00000
     Starting wfcs are   42 randomized atomic wfcs +   18 random wfcs
     Checking if some PAW data can be deallocated...

     Self-consistent Calculation

     iteration #  1     ecut=    40.00 Ry     beta= 0.70
     Davidson diagonalization with overlap
     ethr =  1.00E-02,  avg # of iterations =  6.9

     Threshold (ethr) on eigenvalues was too large:
     Diagonalizing with lowered threshold

     Davidson diagonalization with overlap
     ethr =  5.21E-04,  avg # of iterations =  2.4

     total energy              =    -907.82155572 Ry
     estimated scf accuracy    <       0.26061148 Ry

[...]

     End of self-consistent calculation

          k = 0.0000 0.0000 0.0000 (  3517 PWs)   bands (ev):

   -46.3721 -46.3592 -22.5835 -22.5778 -22.3550 -22.3550 -22.3461 -22.3461
    -5.3176  -5.1631  -4.0589  -3.8077   2.7584   3.4763   6.0497   6.0497
     6.0775   6.1014   6.1014   7.1558   7.1558   7.1995   7.1995   7.7459
     8.6911   9.6206  11.3865  11.3865  11.4705  11.4705  11.5635  11.5635
    11.6278  11.6278  13.7321  13.9304  16.5177  16.6130  16.8314  17.7529
    18.9058  18.9058  18.9653  18.9653  20.4526  20.6963  20.6963  21.2877
    21.2877  21.5559  22.6703  23.4129  23.4726  23.4726  24.0142  24.2667
    24.2667  24.5015  24.5015  24.9309

     occupation numbers
     1.0000   1.0000   1.0000   1.0000   1.0000   1.0000   1.0000   1.0000
     1.0000   1.0000   1.0000   1.0000   1.0000   1.0000   1.0000   1.0000
     1.0000   1.0000   1.0000   1.0000   1.0000   1.0000   1.0000   1.0084
    -0.0281  -0.0000  -0.0000  -0.0000  -0.0000  -0.0000  -0.0000  -0.0000
    -0.0000  -0.0000  -0.0000  -0.0000  -0.0000  -0.0000  -0.0000  -0.0000
    -0.0000  -0.0000  -0.0000  -0.0000  -0.0000  -0.0000  -0.0000  -0.0000
    -0.0000  -0.0000  -0.0000  -0.0000  -0.0000  -0.0000  -0.0000  -0.0000
    -0.0000  -0.0000  -0.0000  -0.0000

[...]

     the Fermi energy is     8.2857 ev

!    total energy              =    -907.91703386 Ry

     total all-electron energy =    -18448.326056 Ry
     estimated scf accuracy    <          1.1E-09 Ry
     smearing contrib. (-TS)   =      -0.00128807 Ry
     internal energy E=F+TS    =    -907.91574579 Ry

     The total energy is F=E-TS. E is the sum of the following terms:
     one-electron contribution =    -151.96598045 Ry
     hartree contribution      =      98.85293767 Ry
     xc contribution           =     -65.34176142 Ry
     ewald contribution        =    -201.20597322 Ry
[...]
               a(1) = (   1.002927   0.000000   0.000000 )
               a(2) = (  -0.501463   0.868560   0.000000 )
               a(3) = (   0.000000   0.000000   3.444153 )

     reciprocal axes: (cart. coord. in units 2 pi/alat)
               b(1) = (  0.997082  0.575665 -0.000000 )
               b(2) = ( -0.000000  1.151331 -0.000000 )
               b(3) = ( -0.000000 -0.000000  0.290347 )

     PseudoPot. # 1 for Nb read from file:
     ../Nb.pz-spn-kjpaw_psl.1.0.0.UPF
     MD5 check sum: 38c2e04b3cc915696ca8dc9f46a23270
     Pseudo is Projector augmented-wave + core cor, Zval = 13.0
     Generated using "atomic" code by A. Dal Corso v.6.2.2
     Shape of augmentation charge: PSQ
     Using radial grid of 1227 points,  6 beta functions with:
                l(1) =   0
                l(2) =   0
                l(3) =   1
                l(4) =   1
                l(5) =   2
                l(6) =   2
     Q(r) pseudized with 0 coefficients

     PseudoPot. # 2 for S  read from file:
     ../S.pz-n-kjpaw_psl.0.1.UPF
     MD5 check sum: c0b1682311cf098e03f7841691d9a679
     Pseudo is Projector augmented-wave + core cor, Zval =  6.0
     Generated using "atomic" code by A. Dal Corso v.5.0.2 svn rev. 9415
     Shape of augmentation charge: PSQ
     Using radial grid of 1151 points,  4 beta functions with:
                l(1) =   0
                l(2) =   0
                l(3) =   1
                l(4) =   1
     Q(r) pseudized with 0 coefficients

     atomic species   valence    mass     pseudopotential
        Nb            13.00    92.90600     Nb( 1.00)
        S              6.00    32.06500     S ( 1.00)

      6 Sym. Ops. (no inversion) found

                                    s                        frac. trans.

      isym =  1     identity

[...]

      isym =  3     120 deg rotation - cryst. axis [0,0,-1]

[...]

      isym =  4     inv. 180 deg rotation - cart. axis [1,0,0]

[...]

      isym =  6     inv. 180 deg rotation - cryst. axis [1,1,0]

 cryst.   s( 6) = (     0         -1          0      )
                  (    -1          0          0      )
                  (     0          0          1      )

 cart.    s( 6) = (  0.5000000 -0.8660254  0.0000000 )
                  ( -0.8660254 -0.5000000  0.0000000 )
                  (  0.0000000  0.0000000  1.0000000 )

     point group C_3v (3m)
     there are  3 classes
     the character table:

       E     2C3   3s_v
A_1    1.00  1.00  1.00
A_2    1.00  1.00 -1.00
E      2.00 -1.00  0.00

     the symmetry operations in each class and the name of the first element:

     E        1
          identity
     2C3      2    3
          120 deg rotation - cryst. axis [0,0,1]
     3s_v     4    5    6
          inv. 180 deg rotation - cart. axis [1,0,0]

   Cartesian axes

     site n.     atom                  positions (alat units)
         1           S   tau(   1) = (   0.0000000   0.5790401   1.3649255  )
         2           Nb  tau(   2) = (   0.0000000   0.0000000   0.8948542  )
         3           S   tau(   3) = (   0.0000000   0.5790401   0.4247877  )
         4           S   tau(   4) = (   0.5014634   0.2895200   2.1470980  )
         5           Nb  tau(   5) = (  -0.0000000   0.0000000   2.6171638  )
         6           S   tau(   6) = (   0.5014634   0.2895200   3.0872196  )

   Crystallographic axes

     site n.     atom                  positions (cryst. coord.)
         1           S   tau(   1) = (  0.3333333  0.6666667  0.3963023  )
         2           Nb  tau(   2) = (  0.0000000  0.0000000  0.2598184  )
         3           S   tau(   3) = (  0.3333333  0.6666667  0.1233359  )
         4           S   tau(   4) = (  0.6666667  0.3333333  0.6234039  )
         5           Nb  tau(   5) = ( -0.0000000  0.0000000  0.7598861  )
         6           S   tau(   6) = (  0.6666667  0.3333333  0.8963655  )

     number of k points=    19  Methfessel-Paxton smearing, width (Ry)=  0.0200
                       cart. coord. in units 2pi/alat
        k(    1) = (   0.0000000   0.0000000   0.0000000), wk =   0.0138889
        k(    2) = (  -0.0000000   0.0959442  -0.0000000), wk =   0.0833333
        k(    3) = (  -0.0000000   0.1918885  -0.0000000), wk =   0.0833333
        k(    4) = (  -0.0000000   0.2878327  -0.0000000), wk =   0.0833333
        k(    5) = (  -0.0000000   0.3837769  -0.0000000), wk =   0.0833333
        k(    6) = (  -0.0000000   0.4797211  -0.0000000), wk =   0.0833333
        k(    7) = (   0.0000000  -0.5756654   0.0000000), wk =   0.0416667
        k(    8) = (   0.0830901   0.1439163  -0.0000000), wk =   0.0833333
        k(    9) = (   0.0830901   0.2398606  -0.0000000), wk =   0.1666667
        k(   10) = (   0.0830901   0.3358048  -0.0000000), wk =   0.1666667
        k(   11) = (   0.0830901   0.4317490  -0.0000000), wk =   0.1666667
        k(   12) = (   0.0830901   0.5276933  -0.0000000), wk =   0.1666667
        k(   13) = (   0.1661803   0.2878327  -0.0000000), wk =   0.0833333
        k(   14) = (   0.1661803   0.3837769  -0.0000000), wk =   0.1666667
        k(   15) = (   0.1661803   0.4797211  -0.0000000), wk =   0.1666667
        k(   16) = (   0.1661803   0.5756654  -0.0000000), wk =   0.0833333
        k(   17) = (   0.2492704   0.4317490  -0.0000000), wk =   0.0833333
        k(   18) = (   0.2492704   0.5276933  -0.0000000), wk =   0.1666667
        k(   19) = (   0.3323606   0.5756654  -0.0000000), wk =   0.0277778

                       cryst. coord.
        k(    1) = (   0.0000000   0.0000000   0.0000000), wk =   0.0138889
        k(    2) = (  -0.0000000   0.0833333  -0.0000000), wk =   0.0833333
        k(    3) = (  -0.0000000   0.1666667  -0.0000000), wk =   0.0833333
        k(    4) = (  -0.0000000   0.2500000  -0.0000000), wk =   0.0833333
        k(    5) = (  -0.0000000   0.3333333  -0.0000000), wk =   0.0833333
        k(    6) = (  -0.0000000   0.4166667  -0.0000000), wk =   0.0833333
        k(    7) = (   0.0000000  -0.5000000   0.0000000), wk =   0.0416667
        k(    8) = (   0.0833333   0.0833333   0.0000000), wk =   0.0833333
        k(    9) = (   0.0833333   0.1666667  -0.0000000), wk =   0.1666667
        k(   10) = (   0.0833333   0.2500000   0.0000000), wk =   0.1666667
        k(   11) = (   0.0833333   0.3333333  -0.0000000), wk =   0.1666667
        k(   12) = (   0.0833333   0.4166667   0.0000000), wk =   0.1666667
        k(   13) = (   0.1666667   0.1666667   0.0000000), wk =   0.0833333
        k(   14) = (   0.1666667   0.2500000  -0.0000000), wk =   0.1666667
        k(   15) = (   0.1666667   0.3333333  -0.0000000), wk =   0.1666667
        k(   16) = (   0.1666667   0.4166667  -0.0000000), wk =   0.0833333
        k(   17) = (   0.2500000   0.2500000  -0.0000000), wk =   0.0833333
        k(   18) = (   0.2500000   0.3333333  -0.0000000), wk =   0.1666667
        k(   19) = (   0.3333333   0.3333333   0.0000000), wk =   0.0277778

     Initial potential from superposition of free atoms

     starting charge   49.99775, renormalised to   50.00000
     Starting wfcs are   42 randomized atomic wfcs +   18 random wfcs
     Checking if some PAW data can be deallocated...

     Self-consistent Calculation

     iteration #  1     ecut=    40.00 Ry     beta= 0.70
     Davidson diagonalization with overlap
     c_bands:  1 eigenvalues not converged
     c_bands:  1 eigenvalues not converged
     c_bands:  1 eigenvalues not converged
     c_bands:  2 eigenvalues not converged
     c_bands:  1 eigenvalues not converged
     c_bands:  1 eigenvalues not converged
     c_bands:  1 eigenvalues not converged
     c_bands:  1 eigenvalues not converged
     c_bands:  1 eigenvalues not converged
     c_bands:  1 eigenvalues not converged
     c_bands:  1 eigenvalues not converged
     c_bands:  1 eigenvalues not converged
     ethr =  1.00E-06,  avg # of iterations = 19.1

[...]

     total energy              =    -907.92737945 Ry
     estimated scf accuracy    <          2.5E-10 Ry

     iteration # 15     ecut=    40.00 Ry     beta= 0.70
     Davidson diagonalization with overlap
     ethr =  4.91E-13,  avg # of iterations =  1.2

     End of self-consistent calculation

[...]

          k =-0.0000 0.4797-0.0000 (  3047 PWs)   bands (ev):

[...]

          k = 0.3324 0.5757-0.0000 (  3030 PWs)   bands (ev):

   -44.0535 -44.0535 -20.4556 -20.4556 -20.3879 -20.3879 -20.2290 -20.2286
    -1.4222  -1.4222  -1.3471  -1.3470   5.3386   5.3387   5.8209   6.1595
     6.1595   6.5789   7.2689   7.4733   7.4733   8.4269   8.5460   8.5460
    11.0678  11.0678  12.7104  12.7330  14.5083  14.5084  14.7665  14.7666
    16.2085  16.2086  16.9019  18.2548  18.2548  18.8543  20.6471  21.2642
    21.2642  21.5687  21.5687  22.1658  22.6018  22.7258  23.8768  23.8768
    24.0516  24.1512  24.1513  25.3640  27.2346  27.2347  27.4509  27.4510
    28.4757  28.7856  28.7856  32.0721

     occupation numbers
     1.0000   1.0000   1.0000   1.0000   1.0000   1.0000   1.0000   1.0000
     1.0000   1.0000   1.0000   1.0000   1.0000   1.0000   1.0000   1.0000
     1.0000   1.0000   1.0000   1.0000   1.0000   1.0000   1.0000   1.0000
    -0.0083  -0.0083  -0.0000  -0.0000  -0.0000  -0.0000  -0.0000  -0.0000
    -0.0000  -0.0000  -0.0000  -0.0000  -0.0000  -0.0000  -0.0000  -0.0000
    -0.0000  -0.0000  -0.0000  -0.0000  -0.0000  -0.0000  -0.0000  -0.0000
    -0.0000  -0.0000  -0.0000  -0.0000  -0.0000  -0.0000  -0.0000  -0.0000
    -0.0000  -0.0000  -0.0000  -0.0000

     the Fermi energy is    10.5265 ev

!    total energy              =    -907.92737945 Ry

     total all-electron energy =    -18448.336402 Ry
     estimated scf accuracy    <          7.6E-12 Ry
     smearing contrib. (-TS)   =      -0.00082576 Ry
     internal energy E=F+TS    =    -907.92655369 Ry

     The total energy is F=E-TS. E is the sum of the following terms:
     one-electron contribution =     -85.51718713 Ry
     hartree contribution      =      69.55148117 Ry
     xc contribution           =     -65.50690795 Ry
     ewald contribution        =    -238.19702541 Ry
     one-center paw contrib.   =    -588.25691437 Ry
      -> PAW hartree energy AE =     101.29929823 Ry
      -> PAW hartree energy PS =    -100.78485670 Ry
      -> PAW xc energy AE      =    -324.84732804 Ry
      -> PAW xc energy PS      =      30.20443104 Ry
      -> total E_H with PAW    =      70.06592270 Ry
      -> total E_XC with PAW   =    -360.14980494 Ry

     convergence has been achieved in  15 iterations

     Forces acting on atoms (cartesian axes, Ry/au):

     atom    1 type  2   force =     0.00000000   -0.00000000    0.00002923
     atom    2 type  1   force =     0.00000000   -0.00000000    0.00001074
     atom    3 type  2   force =     0.00000000   -0.00000000    0.00000736
     atom    4 type  2   force =    -0.00000000    0.00000000   -0.00004226
     atom    5 type  1   force =     0.00000000   -0.00000000   -0.00001947
     atom    6 type  2   force =    -0.00000000    0.00000000    0.00001440
     The non-local contrib.  to forces
     atom    1 type  2   force =     0.00000000   -0.00000000   -0.05266475
     atom    2 type  1   force =     0.00000000   -0.00000000    0.00001282
     atom    3 type  2   force =     0.00000000   -0.00000000    0.05254998
     atom    4 type  2   force =     0.00000000    0.00000000    0.05264827
     atom    5 type  1   force =     0.00000000   -0.00000000   -0.00001580
     atom    6 type  2   force =     0.00000000   -0.00000000   -0.05251871
     The ionic contribution  to forces
     atom    1 type  2   force =    -0.00000000    0.00000000    9.73877413
     atom    2 type  1   force =     0.00000000   -0.00000001    0.01632038
     atom    3 type  2   force =    -0.00000000    0.00000000   -9.72431199
     atom    4 type  2   force =     0.00000000    0.00000000   -9.73913301
     atom    5 type  1   force =    -0.00000000   -0.00000000   -0.01641000
     atom    6 type  2   force =     0.00000000   -0.00000000    9.72476049
     The local contribution  to forces
     atom    1 type  2   force =    -0.00000000    0.00000000   -9.68139778
     atom    2 type  1   force =     0.00000000   -0.00000000   -0.01631952
     atom    3 type  2   force =    -0.00000001    0.00000002    9.66708014
     atom    4 type  2   force =     0.00000000    0.00000000    9.68175263
     atom    5 type  1   force =     0.00000000    0.00000000    0.01640346
     atom    6 type  2   force =     0.00000000    0.00000000   -9.66753259
     The core correction contribution to forces
     atom    1 type  2   force =    -0.00000000   -0.00000000   -0.00468368
     atom    2 type  1   force =     0.00000000    0.00000000   -0.00000151
     atom    3 type  2   force =     0.00000000   -0.00000000    0.00468846
     atom    4 type  2   force =    -0.00000000   -0.00000000    0.00468517
     atom    5 type  1   force =     0.00000000   -0.00000000    0.00000155
     atom    6 type  2   force =    -0.00000000   -0.00000000   -0.00468963
     The Hubbard contrib.    to forces
     atom    1 type  2   force =     0.00000000    0.00000000    0.00000000
     atom    2 type  1   force =     0.00000000    0.00000000    0.00000000
     atom    3 type  2   force =     0.00000000    0.00000000    0.00000000
     atom    4 type  2   force =     0.00000000    0.00000000    0.00000000
     atom    5 type  1   force =     0.00000000    0.00000000    0.00000000
     atom    6 type  2   force =     0.00000000    0.00000000    0.00000000
     The SCF correction term to forces
     atom    1 type  2   force =     0.00000000   -0.00000000    0.00000098
     atom    2 type  1   force =    -0.00000000   -0.00000000   -0.00000176
     atom    3 type  2   force =     0.00000000   -0.00000000    0.00000044
     atom    4 type  2   force =    -0.00000000   -0.00000000    0.00000436
     atom    5 type  1   force =     0.00000000   -0.00000000    0.00000100
     atom    6 type  2   force =     0.00000000   -0.00000000   -0.00000549

     Total force =     0.000058     Total SCF correction =     0.000007
     SCF correction compared to forces is large: reduce conv_thr to get better values

     Computing stress (Cartesian axis) and pressure

          total   stress  (Ry/bohr**3)                   (kbar)     P=        0.26
  -0.00000004   0.00000000  -0.00000000           -0.01        0.00       -0.00
   0.00000000  -0.00000004  -0.00000000            0.00       -0.01       -0.00
  -0.00000000  -0.00000000   0.00000535           -0.00       -0.00        0.79

     kinetic stress (kbar)  16612.40     -0.00     -0.00
                               -0.00  16612.40     -0.00
                               -0.00     -0.00  16682.70

     local   stress (kbar) -19178.23     -0.00     -0.00
                               -0.00 -19178.23      0.00
                               -0.00      0.00   7666.66

     nonloc. stress (kbar)   8776.55     -0.00     -0.00
                               -0.00   8776.55      0.00
                               -0.00      0.00   8768.87

     hartree stress (kbar)   8726.38     -0.00     -0.00
                               -0.00   8726.38      0.00
                               -0.00      0.00  -3147.76

     exc-cor stress (kbar)    658.10      0.00      0.00
                                0.00    658.10      0.00
                                0.00      0.00    658.10

     corecor stress (kbar)  -4275.14     -0.00     -0.00
                               -0.00  -4275.14      0.00
                               -0.00      0.00  -4276.74

     ewald   stress (kbar) -11320.06      0.00      0.00
                                0.00 -11320.06     -0.00
                                0.00     -0.00 -26351.04

     hubbard stress (kbar)      0.00      0.00      0.00
                                0.00      0.00      0.00
                                0.00      0.00      0.00

     DFT-D   stress (kbar)      0.00      0.00      0.00
                                0.00      0.00      0.00
                                0.00      0.00      0.00

     XDM     stress (kbar)      0.00      0.00      0.00
                                0.00      0.00      0.00
                                0.00      0.00      0.00

     dft-nl  stress (kbar)      0.00      0.00      0.00
                                0.00      0.00      0.00
                                0.00      0.00      0.00

     TS-vdW  stress (kbar)      0.00      0.00      0.00
                                0.00      0.00      0.00
                                0.00      0.00      0.00

     Writing output data file ./tmp/NbS2_bi.save/

     General routines

     Parallel routines

     PAW routines

   This run was terminated on:   0: 1:18  15Jun2021

   JOB DONE.