     Program PWSCF v.6.6 starts on 15Jun2021 at 21: 7:39

     R & G space division:  proc/nbgrp/npool/nimage =       2
     Fft bands division:     nmany     =       1
     Waiting for input...
     Reading input from standard input

     Current dimensions of program PWSCF are:
     Max number of different atomic species (ntypx) = 10
     Max number of k-points (npk) =  40000
     Max angular momentum in pseudopotentials (lmaxx) =  3
     file Nb.pz-spn-kjpaw_psl.1.0.0.UPF: wavefunction(s)  4S 4P 4D renormalized
     file S.pz-n-kjpaw_psl.0.1.UPF: wavefunction(s)  3P renormalized

     Subspace diagonalization in iterative solution of the eigenvalue problem:
     a serial algorithm will be used

     bravais-lattice index     =            4
     lattice parameter (alat)  =       6.2187  a.u.
     unit-cell volume          =    1265.7886 (a.u.)^3
     number of atoms/cell      =            6
     number of atomic types    =            2
     number of electrons       =        50.00
     number of Kohn-Sham states=           60
     kinetic-energy cutoff     =      40.0000  Ry
     charge density cutoff     =     400.0000  Ry
     convergence threshold     =      1.0E-08
     mixing beta               =       0.7000
     number of iterations used =            8  plain     mixing
     Exchange-correlation= SLA PZ NOGX NOGC
                           (   1   1   0   0   0   0   0)

     celldm(1)=   6.218718  celldm(2)=   0.000000  celldm(3)=   6.077543
     celldm(4)=   0.000000  celldm(5)=   0.000000  celldm(6)=   0.000000

     crystal axes: (cart. coord. in units of alat)
               a(1) = (   1.000000   0.000000   0.000000 )
               a(2) = (  -0.500000   0.866025   0.000000 )
               a(3) = (   0.000000   0.000000   6.077543 )

     reciprocal axes: (cart. coord. in units 2 pi/alat)
               b(1) = (  1.000000  0.577350 -0.000000 )
               b(2) = (  0.000000  1.154701  0.000000 )
               b(3) = (  0.000000 -0.000000  0.164540 )

     PseudoPot. # 1 for Nb read from file:
     ../Nb.pz-spn-kjpaw_psl.1.0.0.UPF
     MD5 check sum: 38c2e04b3cc915696ca8dc9f46a23270
     Pseudo is Projector augmented-wave + core cor, Zval = 13.0
     Generated using "atomic" code by A. Dal Corso v.6.2.2
     Shape of augmentation charge: PSQ
     Using radial grid of 1227 points,  6 beta functions with:
                l(1) =   0
                l(2) =   0
                l(3) =   1
                l(4) =   1
                l(5) =   2
                l(6) =   2
     Q(r) pseudized with 0 coefficients

     PseudoPot. # 2 for S  read from file:
     ../S.pz-n-kjpaw_psl.0.1.UPF
     MD5 check sum: c0b1682311cf098e03f7841691d9a679
     Pseudo is Projector augmented-wave + core cor, Zval =  6.0
     Generated using "atomic" code by A. Dal Corso v.5.0.2 svn rev. 9415
     Shape of augmentation charge: PSQ
     Using radial grid of 1151 points,  4 beta functions with:
                l(1) =   0
                l(2) =   0
                l(3) =   1
                l(4) =   1
     Q(r) pseudized with 0 coefficients

     atomic species   valence    mass     pseudopotential
        Nb            13.00    92.90600     Nb( 1.00)
        S              6.00    32.06500     S ( 1.00)

     No symmetry found

                                    s                        frac. trans.

      isym =  1     identity

 cryst.   s( 1) = (     1          0          0      )
                  (     0          1          0      )
                  (     0          0          1      )

 cart.    s( 1) = (  1.0000000  0.0000000  0.0000000 )
                  (  0.0000000  1.0000000  0.0000000 )
                  (  0.0000000  0.0000000  1.0000000 )

     point group C_1 (1)
     there are  1 classes
     the character table:

       E
A      1.00

     the symmetry operations in each class and the name of the first element:

     E        1
          identity

   Cartesian axes

     site n.     atom                  positions (alat units)
         1           S   tau(   1) = (  -0.0001201   0.5764567   1.3611707  )
         2           Nb  tau(   2) = (  -0.0003661  -0.0005878   0.8937920  )
         3           S   tau(   3) = (  -0.0005235   0.5771695   0.4201157  )
         4           S   tau(   4) = (   0.4990676   0.2881397   2.1405952  )
         5           Nb  tau(   5) = (  -0.0010239  -0.0006186   2.6079745  )
         6           S   tau(   6) = (   0.4990749   0.2881215   3.0816530  )

   Crystallographic axes

     site n.     atom                  positions (cryst. coord.)
         1           S   tau(   1) = (  0.3326973  0.6656349  0.2239673  )
         2           Nb  tau(   2) = ( -0.0007055 -0.0006788  0.1470647  )
         3           S   tau(   3) = (  0.3327055  0.6664579  0.0691259  )
         4           S   tau(   4) = (  0.6654252  0.3327151  0.3522139  )
         5           Nb  tau(   5) = ( -0.0013810 -0.0007143  0.4291166  )
         6           S   tau(   6) = (  0.6654219  0.3326941  0.5070557  )

     number of k points=    74  Methfessel-Paxton smearing, width (Ry)=  0.0200
                       cart. coord. in units 2pi/alat
        k(    1) = (   0.0000000   0.0000000   0.0000000), wk =   0.0138889
        k(    2) = (   0.0000000   0.0962250   0.0000000), wk =   0.0277778
        k(    3) = (   0.0000000   0.1924501   0.0000000), wk =   0.0277778
        k(    4) = (   0.0000000   0.2886751   0.0000000), wk =   0.0277778
        k(    5) = (   0.0000000   0.3849002   0.0000000), wk =   0.0277778
        k(    6) = (   0.0000000   0.4811252   0.0000000), wk =   0.0277778
        k(    7) = (   0.0000000  -0.5773503   0.0000000), wk =   0.0138889
        k(    8) = (   0.0833333   0.1443376   0.0000000), wk =   0.0277778
        k(    9) = (   0.0833333   0.2405626   0.0000000), wk =   0.0277778
        k(   10) = (   0.0833333   0.3367877   0.0000000), wk =   0.0277778
        k(   11) = (   0.0833333   0.4330127   0.0000000), wk =   0.0277778
        k(   12) = (   0.0833333   0.5292377   0.0000000), wk =   0.0277778
        k(   13) = (   0.1666667   0.2886751   0.0000000), wk =   0.0277778
        k(   14) = (   0.1666667   0.3849002   0.0000000), wk =   0.0277778
        k(   15) = (   0.1666667   0.4811252   0.0000000), wk =   0.0277778
        k(   16) = (   0.1666667   0.5773503   0.0000000), wk =   0.0277778
        k(   17) = (   0.2500000   0.4330127   0.0000000), wk =   0.0277778
        k(   18) = (   0.2500000   0.5292377   0.0000000), wk =   0.0277778
        k(   19) = (   0.3333333   0.5773503   0.0000000), wk =   0.0277778
        k(   20) = (  -0.0833333   0.0481125   0.0000000), wk =   0.0277778
        k(   21) = (   0.0833333   0.0481125   0.0000000), wk =   0.0277778
        k(   22) = (  -0.1666667   0.0962250   0.0000000), wk =   0.0277778
        k(   23) = (   0.1666667   0.0962250   0.0000000), wk =   0.0277778
        k(   24) = (  -0.2500000   0.1443376   0.0000000), wk =   0.0277778
        k(   25) = (   0.2500000   0.1443376   0.0000000), wk =   0.0277778
        k(   26) = (  -0.3333333   0.1924501   0.0000000), wk =   0.0277778
        k(   27) = (   0.3333333   0.1924501   0.0000000), wk =   0.0277778
        k(   28) = (  -0.4166667   0.2405626   0.0000000), wk =   0.0277778
        k(   29) = (   0.4166667   0.2405626   0.0000000), wk =   0.0277778
        k(   30) = (   0.5000000  -0.2886751   0.0000000), wk =   0.0138889
        k(   31) = (  -0.5000000  -0.2886751   0.0000000), wk =   0.0138889
        k(   32) = (  -0.0833333   0.1443376   0.0000000), wk =   0.0277778
        k(   33) = (   0.1666667   0.0000000   0.0000000), wk =   0.0277778
        k(   34) = (  -0.0833333   0.2405626   0.0000000), wk =   0.0277778
        k(   35) = (  -0.1666667   0.1924501   0.0000000), wk =   0.0277778
        k(   36) = (   0.2500000   0.0481125   0.0000000), wk =   0.0277778
        k(   37) = (  -0.1666667  -0.1924501   0.0000000), wk =   0.0277778
        k(   38) = (   0.2500000  -0.0481125   0.0000000), wk =   0.0277778
        k(   39) = (  -0.0833333   0.3367877   0.0000000), wk =   0.0277778
        k(   40) = (  -0.2500000   0.2405626   0.0000000), wk =   0.0277778
        k(   41) = (   0.3333333   0.0962250   0.0000000), wk =   0.0277778
        k(   42) = (  -0.2500000  -0.2405626   0.0000000), wk =   0.0277778
        k(   43) = (   0.3333333  -0.0962250   0.0000000), wk =   0.0277778
        k(   44) = (  -0.0833333   0.4330127   0.0000000), wk =   0.0277778
        k(   45) = (  -0.3333333   0.2886751   0.0000000), wk =   0.0277778
        k(   46) = (   0.4166667   0.1443376   0.0000000), wk =   0.0277778
        k(   47) = (  -0.3333333  -0.2886751   0.0000000), wk =   0.0277778
        k(   48) = (   0.4166667  -0.1443376   0.0000000), wk =   0.0277778
        k(   49) = (  -0.0833333   0.5292377   0.0000000), wk =   0.0277778
        k(   50) = (  -0.4166667   0.3367877   0.0000000), wk =   0.0277778
        k(   51) = (   0.5000000   0.1924501   0.0000000), wk =   0.0277778
        k(   52) = (  -0.4166667  -0.3367877   0.0000000), wk =   0.0277778
        k(   53) = (   0.5000000  -0.1924501   0.0000000), wk =   0.0277778
        k(   54) = (  -0.1666667   0.2886751   0.0000000), wk =   0.0277778
        k(   55) = (   0.3333333   0.0000000   0.0000000), wk =   0.0277778
        k(   56) = (  -0.1666667   0.3849002   0.0000000), wk =   0.0277778
        k(   57) = (  -0.2500000   0.3367877   0.0000000), wk =   0.0277778
        k(   58) = (   0.4166667   0.0481125   0.0000000), wk =   0.0277778
        k(   59) = (  -0.2500000  -0.3367877   0.0000000), wk =   0.0277778
        k(   60) = (   0.4166667  -0.0481125   0.0000000), wk =   0.0277778
        k(   61) = (  -0.1666667   0.4811252   0.0000000), wk =   0.0277778
        k(   62) = (  -0.3333333   0.3849002   0.0000000), wk =   0.0277778
        k(   63) = (   0.5000000   0.0962250   0.0000000), wk =   0.0277778
        k(   64) = (  -0.3333333  -0.3849002   0.0000000), wk =   0.0277778
        k(   65) = (   0.5000000  -0.0962250   0.0000000), wk =   0.0277778
        k(   66) = (  -0.4166667   0.4330127   0.0000000), wk =   0.0277778
        k(   67) = (   0.5833333   0.1443376   0.0000000), wk =   0.0277778
        k(   68) = (  -0.2500000   0.4330127   0.0000000), wk =   0.0277778
        k(   69) = (   0.5000000   0.0000000   0.0000000), wk =   0.0277778
        k(   70) = (  -0.2500000   0.5292377   0.0000000), wk =   0.0277778
        k(   71) = (  -0.3333333   0.4811252   0.0000000), wk =   0.0277778
        k(   72) = (   0.5833333   0.0481125   0.0000000), wk =   0.0277778
        k(   73) = (  -0.3333333  -0.4811252   0.0000000), wk =   0.0277778
        k(   74) = (   0.5833333  -0.0481125   0.0000000), wk =   0.0277778

                       cryst. coord.
        k(    1) = (   0.0000000   0.0000000   0.0000000), wk =   0.0138889
        k(    2) = (   0.0000000   0.0833333   0.0000000), wk =   0.0277778
        k(    3) = (   0.0000000   0.1666667   0.0000000), wk =   0.0277778
        k(    4) = (   0.0000000   0.2500000   0.0000000), wk =   0.0277778
        k(    5) = (   0.0000000   0.3333333   0.0000000), wk =   0.0277778
        k(    6) = (   0.0000000   0.4166667   0.0000000), wk =   0.0277778
        k(    7) = (   0.0000000  -0.5000000   0.0000000), wk =   0.0138889
        k(    8) = (   0.0833333   0.0833333   0.0000000), wk =   0.0277778
        k(    9) = (   0.0833333   0.1666667   0.0000000), wk =   0.0277778
        k(   10) = (   0.0833333   0.2500000   0.0000000), wk =   0.0277778
        k(   11) = (   0.0833333   0.3333333   0.0000000), wk =   0.0277778
        k(   12) = (   0.0833333   0.4166667   0.0000000), wk =   0.0277778
        k(   13) = (   0.1666667   0.1666667   0.0000000), wk =   0.0277778
        k(   14) = (   0.1666667   0.2500000   0.0000000), wk =   0.0277778
        k(   15) = (   0.1666667   0.3333333   0.0000000), wk =   0.0277778
        k(   16) = (   0.1666667   0.4166667   0.0000000), wk =   0.0277778
        k(   17) = (   0.2500000   0.2500000   0.0000000), wk =   0.0277778
        k(   18) = (   0.2500000   0.3333333   0.0000000), wk =   0.0277778
        k(   19) = (   0.3333333   0.3333333   0.0000000), wk =   0.0277778
        k(   20) = (  -0.0833333   0.0833333   0.0000000), wk =   0.0277778
        k(   21) = (   0.0833333   0.0000000   0.0000000), wk =   0.0277778
        k(   22) = (  -0.1666667   0.1666667   0.0000000), wk =   0.0277778
        k(   23) = (   0.1666667   0.0000000   0.0000000), wk =   0.0277778
        k(   24) = (  -0.2500000   0.2500000   0.0000000), wk =   0.0277778
        k(   25) = (   0.2500000   0.0000000   0.0000000), wk =   0.0277778
        k(   26) = (  -0.3333333   0.3333333   0.0000000), wk =   0.0277778
        k(   27) = (   0.3333333   0.0000000   0.0000000), wk =   0.0277778
        k(   28) = (  -0.4166667   0.4166667   0.0000000), wk =   0.0277778
        k(   29) = (   0.4166667   0.0000000   0.0000000), wk =   0.0277778
        k(   30) = (   0.5000000  -0.5000000   0.0000000), wk =   0.0138889
        k(   31) = (  -0.5000000   0.0000000   0.0000000), wk =   0.0138889
        k(   32) = (  -0.0833333   0.1666667   0.0000000), wk =   0.0277778
        k(   33) = (   0.1666667  -0.0833333   0.0000000), wk =   0.0277778
        k(   34) = (  -0.0833333   0.2500000   0.0000000), wk =   0.0277778
        k(   35) = (  -0.1666667   0.2500000   0.0000000), wk =   0.0277778
        k(   36) = (   0.2500000  -0.0833333   0.0000000), wk =   0.0277778
        k(   37) = (  -0.1666667  -0.0833333   0.0000000), wk =   0.0277778
        k(   38) = (   0.2500000  -0.1666667   0.0000000), wk =   0.0277778
        k(   39) = (  -0.0833333   0.3333333   0.0000000), wk =   0.0277778
        k(   40) = (  -0.2500000   0.3333333   0.0000000), wk =   0.0277778
        k(   41) = (   0.3333333  -0.0833333   0.0000000), wk =   0.0277778
        k(   42) = (  -0.2500000  -0.0833333   0.0000000), wk =   0.0277778
        k(   43) = (   0.3333333  -0.2500000   0.0000000), wk =   0.0277778
        k(   44) = (  -0.0833333   0.4166667   0.0000000), wk =   0.0277778
        k(   45) = (  -0.3333333   0.4166667   0.0000000), wk =   0.0277778
        k(   46) = (   0.4166667  -0.0833333   0.0000000), wk =   0.0277778
        k(   47) = (  -0.3333333  -0.0833333   0.0000000), wk =   0.0277778
        k(   48) = (   0.4166667  -0.3333333   0.0000000), wk =   0.0277778
        k(   49) = (  -0.0833333   0.5000000   0.0000000), wk =   0.0277778
        k(   50) = (  -0.4166667   0.5000000   0.0000000), wk =   0.0277778
        k(   51) = (   0.5000000  -0.0833333   0.0000000), wk =   0.0277778
        k(   52) = (  -0.4166667  -0.0833333   0.0000000), wk =   0.0277778
        k(   53) = (   0.5000000  -0.4166667   0.0000000), wk =   0.0277778
        k(   54) = (  -0.1666667   0.3333333   0.0000000), wk =   0.0277778
        k(   55) = (   0.3333333  -0.1666667   0.0000000), wk =   0.0277778
        k(   56) = (  -0.1666667   0.4166667   0.0000000), wk =   0.0277778
        k(   57) = (  -0.2500000   0.4166667   0.0000000), wk =   0.0277778
        k(   58) = (   0.4166667  -0.1666667   0.0000000), wk =   0.0277778
        k(   59) = (  -0.2500000  -0.1666667   0.0000000), wk =   0.0277778
        k(   60) = (   0.4166667  -0.2500000   0.0000000), wk =   0.0277778
        k(   61) = (  -0.1666667   0.5000000   0.0000000), wk =   0.0277778
        k(   62) = (  -0.3333333   0.5000000   0.0000000), wk =   0.0277778
        k(   63) = (   0.5000000  -0.1666667   0.0000000), wk =   0.0277778
        k(   64) = (  -0.3333333  -0.1666667   0.0000000), wk =   0.0277778
        k(   65) = (   0.5000000  -0.3333333   0.0000000), wk =   0.0277778
        k(   66) = (  -0.4166667   0.5833333   0.0000000), wk =   0.0277778
        k(   67) = (   0.5833333  -0.1666667   0.0000000), wk =   0.0277778
        k(   68) = (  -0.2500000   0.5000000   0.0000000), wk =   0.0277778
        k(   69) = (   0.5000000  -0.2500000   0.0000000), wk =   0.0277778
        k(   70) = (  -0.2500000   0.5833333   0.0000000), wk =   0.0277778
        k(   71) = (  -0.3333333   0.5833333   0.0000000), wk =   0.0277778
        k(   72) = (   0.5833333  -0.2500000   0.0000000), wk =   0.0277778
        k(   73) = (  -0.3333333  -0.2500000   0.0000000), wk =   0.0277778
        k(   74) = (   0.5833333  -0.3333333   0.0000000), wk =   0.0277778

     Initial potential from superposition of free atoms

     starting charge   49.99775, renormalised to   50.00000

     negative rho (up, down):  1.197E-04 0.000E+00
     Starting wfcs are   42 randomized atomic wfcs +   18 random wfcs
     Checking if some PAW data can be deallocated...

     Self-consistent Calculation

     iteration #  1     ecut=    40.00 Ry     beta= 0.70
     Davidson diagonalization with overlap
     ethr =  1.00E-02,  avg # of iterations =  7.5

     Threshold (ethr) on eigenvalues was too large:
     Diagonalizing with lowered threshold

     Davidson diagonalization with overlap
     ethr =  5.13E-04,  avg # of iterations =  2.6

     negative rho (up, down):  1.756E-04 0.000E+00

     total energy              =    -907.82546716 Ry
     estimated scf accuracy    <       0.25762860 Ry

[...]

     total energy              =    -907.91988480 Ry
     estimated scf accuracy    <       0.00000015 Ry

     iteration # 13     ecut=    40.00 Ry     beta= 0.70
     Davidson diagonalization with overlap
     ethr =  3.06E-10,  avg # of iterations =  1.0

     negative rho (up, down):  1.850E-04 0.000E+00

     End of self-consistent calculation

          k = 0.0000 0.0000 0.0000 (  5453 PWs)   bands (ev):

   -51.5095 -51.5095 -27.7341 -27.7336 -27.5091 -27.5091 -27.5089 -27.5088
   -10.7724 -10.3489  -9.3355  -8.8861  -2.6529  -1.6560   0.7243   0.7243
     0.7783   0.7787   1.1121   1.8679   1.8690   1.8954   1.8959   2.5365
     3.8370   4.7264   6.0348   6.0377   6.2980   6.3000   6.4203   6.4219
     6.5199   6.5210   8.4931   8.5865   8.9912   9.4429  10.9962  11.1897
    11.7111  13.2059  13.5609  13.5627  13.6133  13.6149  14.4404  15.3220
    15.3972  15.3991  16.2623  16.2723  16.2744  16.6588  17.9623  17.9668
    18.1062  18.2294  18.9146  19.0018

     occupation numbers
     1.0000   1.0000   1.0000   1.0000   1.0000   1.0000   1.0000   1.0000
     1.0000   1.0000   1.0000   1.0000   1.0000   1.0000   1.0000   1.0000
     1.0000   1.0000   1.0000   1.0000   1.0000   1.0000   1.0000   1.0038
    -0.0009  -0.0000  -0.0000  -0.0000  -0.0000  -0.0000  -0.0000  -0.0000
    -0.0000  -0.0000  -0.0000  -0.0000  -0.0000  -0.0000  -0.0000  -0.0000
    -0.0000  -0.0000  -0.0000  -0.0000  -0.0000  -0.0000  -0.0000  -0.0000
    -0.0000  -0.0000  -0.0000  -0.0000  -0.0000  -0.0000  -0.0000  -0.0000
    -0.0000  -0.0000  -0.0000  -0.0000

[...]

          k =-0.0833 0.0481 0.0000 (  5423 PWs)   bands (ev):

[...]

          k =-0.3333-0.4811 0.0000 (  5370 PWs)   bands (ev):

[...]

          k = 0.5833-0.0481 0.0000 (  5370 PWs)   bands (ev):

   -51.4612 -51.4612 -27.8788 -27.8788 -27.7371 -27.7370 -27.6268 -27.6267
    -8.8858  -8.7293  -8.5016  -8.4919  -1.9058  -1.8141  -1.5350  -1.3678
    -0.5579  -0.2087  -0.0937   0.2710   0.4266   0.7461   1.4065   1.6986
     3.4626   3.5290   5.6507   5.7102   6.8948   6.9651   7.3483   7.6444
     8.3299   8.5183  10.0621  10.6854  11.1452  11.8341  12.1305  13.0808
    13.2622  13.4028  13.5953  14.1225  14.3495  14.6081  14.8158  15.1808
    15.2602  15.6707  15.9244  16.0591  16.1969  16.4231  16.8438  16.9104
    17.2649  17.6306  17.8864  18.7024

     occupation numbers
     1.0000   1.0000   1.0000   1.0000   1.0000   1.0000   1.0000   1.0000
     1.0000   1.0000   1.0000   1.0000   1.0000   1.0000   1.0000   1.0000
     1.0000   1.0000   1.0000   1.0000   1.0000   1.0000   1.0000   1.0000
    -0.0352  -0.0305  -0.0000  -0.0000  -0.0000  -0.0000  -0.0000  -0.0000
    -0.0000  -0.0000  -0.0000  -0.0000  -0.0000  -0.0000  -0.0000  -0.0000
    -0.0000  -0.0000  -0.0000  -0.0000  -0.0000  -0.0000  -0.0000  -0.0000
    -0.0000  -0.0000  -0.0000  -0.0000  -0.0000  -0.0000  -0.0000  -0.0000
    -0.0000  -0.0000  -0.0000  -0.0000

     the Fermi energy is     3.1391 ev

!    total energy              =    -907.91988481 Ry

     total all-electron energy =    -18448.328907 Ry
     estimated scf accuracy    <          6.6E-10 Ry
     smearing contrib. (-TS)   =      -0.00146019 Ry
     internal energy E=F+TS    =    -907.91842462 Ry

     The total energy is F=E-TS. E is the sum of the following terms:
     one-electron contribution =   -1381.80361918 Ry
     hartree contribution      =     704.23378308 Ry
     xc contribution           =     -65.42085931 Ry
     ewald contribution        =     423.33047983 Ry
     one-center paw contrib.   =    -588.25820903 Ry
      -> PAW hartree energy AE =     101.18332972 Ry
      -> PAW hartree energy PS =    -100.66895777 Ry
      -> PAW xc energy AE      =    -324.84139297 Ry
      -> PAW xc energy PS      =      30.19791585 Ry
      -> total E_H with PAW    =     704.74815503 Ry
      -> total E_XC with PAW   =    -360.06433642 Ry

     convergence has been achieved in  13 iterations

     Writing output data file ./tmp/NbS2_bi.save/

     General routines

     Parallel routines

     PAW routines

   This run was terminated on:  21:23:22  15Jun2021

   JOB DONE.